 vasp.6.3.2 27Jun22 (build Aug 17 2022 15:43:34) complex

 executed on           tv2STDVTST date 2025.01.21  11:33:00

 INCAR:
   ISTART = 0
   ICHARG = 2
   IPIPOL = 3
   IVDW = 11
   ISPIN = 2
   ENCUT = 400
   PREC = Normal
   EDIFF = 2E-04
   GGA = PE
   ISMEAR = 1
   SIGMA = 0.2
   LREAL = .FALSE.
   ISYM = 1
   NSW = 800
   IBRION = 2
   POTIM = 0.5
   ISIF = 2
   EDIFFG = -.03
   NPAR = 4
   LWAVE = .FALSE.
   LCHARG = .FALSE.

 POTCAR:    PAW_PBE Cu 22Jun2005
|           W    W    AA    RRRRR   N    N  II  N    N   GGGG   !!!           |
|           W    W   A  A   R    R  NN   N  II  NN   N  G    G  !!!           |
|           W    W  A    A  R    R  N N  N  II  N N  N  G       !!!           |
|           W WW W  AAAAAA  RRRRR   N  N N  II  N  N N  G  GGG   !            |
|           WW  WW  A    A  R   R   N   NN  II  N   NN  G    G                |
|           W    W  A    A  R    R  N    N  II  N    N   GGGG   !!!           |
|     You use a magnetic or noncollinear calculation, but did not specify     |
|     the initial magnetic moment with the MAGMOM tag. Note that a            |
|     default of 1 will be used for all atoms. This ferromagnetic setup       |
|     may break the symmetry of the crystal, in particular it may rule        |
|     out finding an antiferromagnetic solution. Thence, we recommend         |
|     setting the initial magnetic moment manually or verifying carefully     |
|     that this magnetic setup is desired.                                    |

   TITEL  = PAW_PBE Cu 22Jun2005
   POMASS =   63.546; ZVAL   =   11.000    mass and valenz
   ENMAX  =  295.446; ENMIN  =  221.585 eV

  PAW_PBE Cu 22Jun2005                  :

 POSCAR: FCC Cu
  positions in cartesian coordinates
  velocities in cartesian coordinates
 exchange correlation table for  LEXCH =        8
   RHO(1)=    0.500       N(1)  =     2000
   RHO(2)=  100.500       N(2)  =     4000

 VTST: version 4.2, (08/11/21)

 CHAIN: initializing optimizer

 OPT: Using VASP Conjugate-Gradient optimizer
 CHAIN: Read ICHAIN            0

 POSCAR: FCC Cu
  positions in cartesian coordinates
  velocities in cartesian coordinates

 ion  position               nearest neighbor table
   1  0.000  0.000  0.000-   2 2.57   2 2.57   2 2.57
   2  0.333  0.333  0.090-   3 2.57   1 2.57   1 2.57   3 2.57   1 2.57   3 2.57
   3  0.667  0.667  0.179-   2 2.57   2 2.57   2 2.57   4 2.57   4 2.57   4 2.57
   4  0.000  0.000  0.269-   5 2.57   5 2.57   5 2.57   3 2.57   3 2.57   3 2.57
   5  0.333  0.333  0.359-   4 2.57   4 2.57   4 2.57

  LATTYP: Found a hexagonal cell.
 ALAT       =     2.5667977333
 C/A-ratio  =     9.1098437000

  Lattice vectors:

 A1 = (  -1.2833988667,  -2.2229120434,   0.0000000000)
 A2 = (   2.5667977333,   0.0000000000,   0.0000000000)
 A3 = (   0.0000000000,   0.0000000000,  23.3831261600)

Analysis of symmetry for initial positions (statically):
 Subroutine PRICEL returns:
 Original cell was already a primitive cell.

 Routine SETGRP: Setting up the symmetry group for a
 hexagonal supercell.

 Subroutine GETGRP returns: Found 12 space group operations
 (whereof  6 operations were pure point group operations)
 out of a pool of 24 trial point group operations.

The static configuration has the point symmetry C_3v.
 The point group associated with its full space group is D_3d.

Analysis of symmetry for dynamics (positions and initial velocities):
 Subroutine PRICEL returns:
 Original cell was already a primitive cell.

[...]

The dynamic configuration has the point symmetry C_3v.
 The point group associated with its full space group is D_3d.

Analysis of constrained symmetry for selective dynamics:
 Subroutine PRICEL returns:
 Original cell was already a primitive cell.

[...]

The constrained configuration has the point symmetry C_3v.

Analysis of structural, dynamic, and magnetic symmetry:
 Subroutine PRICEL returns:
 Original cell was already a primitive cell.

 Routine SETGRP: Setting up the symmetry group for a
 hexagonal supercell.

 Subroutine GETGRP returns: Found  6 space group operations
 (whereof  6 operations were pure point group operations)
 out of a pool of 24 trial point group operations.

The overall configuration has the point symmetry C_3v.

 Subroutine INISYM returns: Found  6 space group operations
 (whereof  6 operations are pure point group operations),
 and found     1 'primitive' translations

                                     Primitive cell

  volume of cell :     133.4186

  direct lattice vectors                    reciprocal lattice vectors
     2.566797733  0.000000000  0.000000000     0.389590495 -0.224930177  0.000000000
     1.283398867  2.222912043  0.000000000     0.000000000  0.449860355  0.000000000
     0.000000000  0.000000000 23.383126160     0.000000000  0.000000000  0.042765881

  length of vectors
     2.566797733  2.566797733 23.383126160     0.449860355  0.449860355  0.042765881

  position of ions in fractional coordinates (direct lattice)
     0.000000000  0.000000000  0.000000000
     0.333333333  0.333333333  0.089627945
     0.666666667  0.666666667  0.179255889
     0.000000000  0.000000000  0.268883834
     0.333333333  0.333333333  0.358511779

  ion indices of the primitive-cell ions
   primitive index   ion index
                 1           1
                 2           2
                 3           3
                 4           4
                 5           5

 KPOINTS: Auto-mesh

Automatic generation of k-mesh.
 Grid dimensions read from file:
 generate k-points for:    3    3    1

 Generating k-lattice:

  Cartesian coordinates                     Fractional coordinates (reciprocal lattice)
     0.129863498 -0.074976726  0.000000000     0.333333333  0.000000000  0.000000000
     0.000000000  0.149953452  0.000000000     0.000000000  0.333333333  0.000000000
     0.000000000  0.000000000  0.042765881     0.000000000  0.000000000  1.000000000

  Length of vectors
     0.149953452  0.149953452  0.042765881

  Shift w.r.t. Gamma in fractional coordinates (k-lattice)
     0.000000000  0.000000000  0.000000000

 Subroutine IBZKPT returns following result:

 Found      3 irreducible k-points:

 Following reciprocal coordinates:
            Coordinates               Weight
  0.000000  0.000000  0.000000      1.000000
  0.333333  0.000000  0.000000      6.000000
 -0.333333  0.333333  0.000000      2.000000

 Following cartesian coordinates:
            Coordinates               Weight
  0.000000  0.000000  0.000000      1.000000
  0.129863 -0.074977  0.000000      6.000000
 -0.129863  0.224930  0.000000      2.000000

 SYSTEM =  unknown system
 POSCAR =  FCC Cu

 Startparameter for this run:
   NWRITE =      2    write-flag & timer
   PREC   = normal    normal or accurate (medium, high low for compatibility)
   ISTART =      0    job   : 0-new  1-cont  2-samecut
   ICHARG =      2    charge: 1-file 2-atom 10-const
   ISPIN  =      2    spin polarized calculation?
   LNONCOLLINEAR =      F non collinear calculations
   LSORBIT =      F    spin-orbit coupling
   INIWAV =      1    electr: 0-lowe 1-rand  2-diag
   LASPH  =      F    aspherical Exc in radial PAW
 Electronic Relaxation 1
   ENCUT  =  400.0 eV  29.40 Ry    5.42 a.u.   4.19  4.19 38.13*2*pi/ulx,y,z
   ENINI  =  400.0     initial cutoff
   ENAUG  =  587.0 eV  augmentation charge cutoff
   NELM   =     60;   NELMIN=  2; NELMDL= -5     # of ELM steps
   EDIFF  = 0.2E-03   stopping-criterion for ELM
   LREAL  =      F    real-space projection
   NLSPLINE    = F    spline interpolate recip. space projectors
   LCOMPAT=      F    compatible to vasp.4.4
   GGA_COMPAT  = T    GGA compatible to vasp.4.4-vasp.4.6
   LMAXPAW     = -100 max onsite density
   LMAXMIX     =    2 max onsite mixed and CHGCAR
   VOSKOWN=      0    Vosko Wilk Nusair interpolation
   ROPT   =    0.00000
 Ionic relaxation
   EDIFFG = -.3E-01   stopping-criterion for IOM
   NSW    =    800    number of steps for IOM
   NBLOCK =      1;   KBLOCK =    800    inner block; outer block
   IBRION =      2    ionic relax: 0-MD 1-quasi-New 2-CG
   NFREE  =      1    steps in history (QN), initial steepest desc. (CG)
   ISIF   =      2    stress and relaxation
   IWAVPR =     11    prediction:  0-non 1-charg 2-wave 3-comb
   ISYM   =      1    0-nonsym 1-usesym 2-fastsym
   LCORR  =      T    Harris-Foulkes like correction to forces

   POTIM  = 0.5000    time-step for ionic-motion
   TEIN   =    0.0    initial temperature
   TEBEG  =    0.0;   TEEND  =   0.0 temperature during run
   SMASS  =  -3.00    Nose mass-parameter (am)
   estimated Nose-frequenzy (Omega)   =  0.10E-29 period in steps = 0.13E+47 mass=  -0.151E-27a.u.
   SCALEE = 1.0000    scale energy and forces
   NPACO  =    256;   APACO  = 10.0  distance and # of slots for P.C.
   PSTRESS=    0.0 pullay stress

  Mass of Ions in am
   POMASS =  63.55
  Ionic Valenz
   ZVAL   =  11.00
  Atomic Wigner-Seitz radii
  virtual crystal weights
   VCA    =   1.00
   NELECT =      55.0000    total number of electrons
   NUPDOWN=      -1.0000    fix difference up-down

 DOS related values:
   EMIN   =  10.00;   EMAX   =-10.00  energy-range for DOS
   EFERMI =   0.00
   ISMEAR =     1;   SIGMA  =   0.20  broadening in eV -4-tet -1-fermi 0-gaus

 Electronic relaxation 2 (details)
   IALGO  =     38    algorithm
   LDIAG  =      T    sub-space diagonalisation (order eigenvalues)
   LSUBROT=      F    optimize rotation matrix (better conditioning)
   TURBO    =      0    0=normal 1=particle mesh
   IRESTART =      0    0=no restart 2=restart with 2 vectors
   NREBOOT  =      0    no. of reboots
   NMIN     =      0    reboot dimension
   EREF     =   0.00    reference energy to select bands
   IMIX   =      4    mixing-type and parameters
     AMIX     =   0.40;   BMIX     =  1.00
     AMIX_MAG =   1.60;   BMIX_MAG =  1.00
     AMIN     =   0.10
     WC   =   100.;   INIMIX=   1;  MIXPRE=   1;  MAXMIX= -45

 Intra band minimization:
   WEIMIN = 0.0010     energy-eigenvalue tresh-hold
   EBREAK =  0.14E-05  absolut break condition
   DEPER  =   0.30     relativ break condition

   TIME   =   0.40     timestep for ELM

  volume/ion in A,a.u.               =      26.68       180.07
  Fermi-wavevector in a.u.,A,eV,Ry     =   1.218401  2.302444 20.197860  1.484501
  Thomas-Fermi vector in A             =   2.353689

 Write flags
   LWAVE        =      F    write WAVECAR
   LDOWNSAMPLE  =      F    k-point downsampling of WAVECAR
   LCHARG       =      F    write CHGCAR
   LVTOT        =      F    write LOCPOT, total local potential
   LVHAR        =      F    write LOCPOT, Hartree potential only
   LELF         =      F    write electronic localiz. function (ELF)
   LORBIT       =      0    0 simple, 1 ext, 2 COOP (PROOUT), +10 PAW based schemes

 Dipole corrections
   LMONO  =      F    monopole corrections only (constant potential shift)
   LDIPOL =      F    correct potential (dipole corrections)
   IDIPOL =      0    1-x, 2-y, 3-z, 4-all directions
   EPSILON=  1.0000000 bulk dielectric constant

 Exchange correlation treatment:
   GGA     =    PE    GGA type
   VOSKOWN =     0    Vosko Wilk Nusair interpolation
   LHFCALC =     F    Hartree Fock is set to
[...]
      1.28340      0.74097      8.38313        -0.000000      0.000000     -0.545092
    total drift:                                0.000004      0.000005      0.002444

  FREE ENERGIE OF THE ION-ELECTRON SYSTEM (eV)
  free  energy   TOTEN  =       -20.55564020 eV

  energy  without entropy=      -20.58052368  energy(sigma->0) =      -20.56393470

 stress matrix after NEB project (eV)
     -3.55298     -0.00000     -0.00000
     -0.00000     -3.55298      0.00000
     -0.00000     -0.00000     -4.04939
  FORCES: max atom, RMS     0.545092    0.259028
  FORCE total and by dimension    0.579205    0.545092
  Stress total and by dimension    6.453287    4.049390

[...]

         DFTD3 V3.0 Rev 1
 Edisp (eV)   -1.86868

[...]

 d Force = 0.1359473E-01[ 0.110E-01, 0.162E-01]  d Energy = 0.1400175E-01-0.407E-03
 d Force =-0.9124072E+02[-0.915E+02,-0.910E+02]  d Ewald  =-0.9124118E+02 0.451E-03

 stress matrix after NEB project (eV)
     -2.52087     -0.00000     -0.00000
     -0.00000     -2.52087     -0.00000
     -0.00000      0.00000     -2.86573
  FORCES: max atom, RMS     0.409413    0.183824
  FORCE total and by dimension    0.411044    0.409413
  Stress total and by dimension    4.574053    2.865727
 Steepest descent step on ions:
 trial-energy change:   -0.014002  1 .order   -0.013595   -0.016184   -0.011005
  (g-gl).g = 0.162E-01      g.g   = 0.162E-01  gl.gl    = 0.000E+00
 g(Force)  = 0.162E-01   g(Stress)= 0.000E+00 ortho     = 0.000E+00
 gamma     =   0.00000
 trial     =   1.00000
 opt step  =   3.12483  (harmonic =   3.12483) maximal distance =0.02952283
 next E    =   -20.580927   (d E  =  -0.02529)

[...]

 d Force = 0.6589055E-02[-0.102E-01, 0.234E-01]  d Energy = 0.1027125E-01-0.368E-02
 d Force =-0.1956232E+03[-0.197E+03,-0.194E+03]  d Ewald  =-0.1956283E+03 0.504E-02

[...]

 d Force = 0.1165784E-02[-0.769E-03, 0.310E-02]  d Energy = 0.9810372E-03 0.185E-03
 d Force = 0.5968920E+02[ 0.596E+02, 0.598E+02]  d Ewald  = 0.5968935E+02-0.152E-03

[...]

 d Force = 0.9838117E-04[ 0.438E-04, 0.153E-03]  d Energy =-0.7088297E-03 0.807E-03
 d Force =-0.1184783E+02[-0.119E+02,-0.118E+02]  d Ewald  =-0.1184783E+02 0.116E-05

[...]

 stress matrix after NEB project (eV)
     -3.35289     -0.00000     -0.00000
     -0.00000     -3.35289      0.00000
      0.00000      0.00000     -3.23230
  FORCES: max atom, RMS     0.213684    0.112293
  FORCE total and by dimension    0.251096    0.213684
  Stress total and by dimension    5.738597    3.352890
 Conjugate gradient step on ions:
 trial-energy change:   -0.004965  1 .order   -0.005439   -0.005864   -0.005013
  (g-gl).g = 0.401E-02      g.g   = 0.435E-02  gl.gl    = 0.162E-01
 g(Force)  = 0.435E-02   g(Stress)= 0.000E+00 ortho     = 0.342E-03
 gamma     =   0.24785
 trial     =   1.32151
 opt step  =   5.28605  (harmonic =   9.10996) maximal distance =0.01381117
 next E    =   -20.600398   (d E  =  -0.02021)

[...]

 d Force =-0.2312373E-01[-0.565E-01, 0.102E-01]  d Energy =-0.2363377E-01 0.510E-03
 d Force =-0.5931343E+03[-0.598E+03,-0.589E+03]  d Ewald  =-0.5931495E+03 0.153E-01

[...]

 d Force = 0.2422936E-01[ 0.645E-03, 0.478E-01]  d Energy = 0.2353475E-01 0.695E-03
 d Force = 0.5028278E+03[ 0.500E+03, 0.506E+03]  d Ewald  = 0.5028373E+03-0.948E-02

[...]

 stress matrix after NEB project (eV)
     -2.85926     -0.00000     -0.00000
     -0.00000     -2.85926     -0.00000
     -0.00000     -0.00000     -2.23806
  FORCES: max atom, RMS     0.332301    0.149924
  FORCE total and by dimension    0.335240    0.332301
  Stress total and by dimension    4.621656    2.859264
 Conjugate gradient step on ions:
 trial-energy change:   -0.003724  1 .order   -0.003677   -0.003985   -0.003369
  (g-gl).g = 0.687E-02      g.g   = 0.615E-02  gl.gl    = 0.435E-02
 g(Force)  = 0.615E-02   g(Stress)= 0.000E+00 ortho     =-0.961E-04
 gamma     =   1.57818
 trial     =   0.66381
 opt step  =   2.65523  (harmonic =   4.29888) maximal distance =0.00000000
 next E    =   -20.608612   (d E  =  -0.01290)

[...]

 d Force = 0.1004622E-02[ 0.565E-03, 0.144E-02]  d Energy = 0.1392152E-02-0.388E-03
 d Force = 0.1471348E+03[ 0.147E+03, 0.147E+03]  d Ewald  = 0.1471348E+03-0.358E-04

[...]

 d Force = 0.3729994E-02[ 0.101E-02, 0.645E-02]  d Energy = 0.3544836E-02 0.185E-03
 d Force =-0.3174026E+02[-0.319E+02,-0.315E+02]  d Ewald  =-0.3174023E+02-0.312E-04

 stress matrix after NEB project (eV)
     -2.49449     -0.00000     -0.00000
     -0.00000     -2.49449      0.00000
     -0.00000     -0.00000     -0.87462
  FORCES: max atom, RMS     0.062127    0.038151
  FORCE total and by dimension    0.085307    0.062127
  Stress total and by dimension    3.634540    2.494486
 Conjugate gradient step on ions:
 trial-energy change:   -0.003545  1 .order   -0.003730   -0.006455   -0.001005
  (g-gl).g = 0.225E-02      g.g   = 0.412E-02  gl.gl    = 0.615E-02
 g(Force)  = 0.412E-02   g(Stress)= 0.000E+00 ortho     =-0.517E-03
 gamma     =   0.36615
 trial     =   1.64026
 opt step  =   1.94286  (harmonic =   1.94286) maximal distance =0.00264679
 next E    =   -20.617684   (d E  =  -0.00382)

[...]

 d Force = 0.1169079E-03[ 0.483E-04, 0.185E-03]  d Energy =-0.1209763E-03 0.238E-03
 d Force =-0.5898035E+01[-0.590E+01,-0.589E+01]  d Ewald  =-0.5898035E+01-0.145E-06

[...]

 d Force =-0.1657612E-04[-0.502E-04, 0.170E-04]  d Energy = 0.1784160E-03-0.195E-03
 d Force =-0.2082655E+01[-0.208E+01,-0.208E+01]  d Ewald  =-0.2082655E+01-0.575E-08

[...]

 d Force =-0.1333283E-04[-0.641E-04, 0.375E-04]  d Energy = 0.4310723E-04-0.564E-04
 d Force = 0.1554874E+01[ 0.155E+01, 0.156E+01]  d Ewald  = 0.1554874E+01 0.238E-08

[...]

 d Force = 0.1653937E-04[-0.741E-05, 0.405E-04]  d Energy =-0.1808368E-05 0.183E-04
 d Force =-0.9813503E+00[-0.982E+00,-0.981E+00]  d Ewald  =-0.9813503E+00-0.528E-09

[...]

 d Force =-0.5083521E-05[-0.118E-04, 0.167E-05]  d Energy = 0.2687433E-05-0.777E-05
 d Force = 0.2209861E+00[ 0.221E+00, 0.221E+00]  d Ewald  = 0.2209861E+00-0.193E-09

[...]

 d Force = 0.2391118E-05[ 0.107E-05, 0.371E-05]  d Energy =-0.9007102E-03 0.903E-03
 d Force = 0.9684777E-01[ 0.968E-01, 0.968E-01]  d Ewald  = 0.9684777E-01-0.691E-10

[...]

 d Force = 0.2426184E-06[ 0.158E-06, 0.327E-06]  d Energy =-0.2925354E-03 0.293E-03
 d Force = 0.2964908E-01[ 0.296E-01, 0.296E-01]  d Ewald  = 0.2964908E-01 0.364E-11

[...]

 d Force = 0.5595388E-07[-0.174E-07, 0.129E-06]  d Energy =-0.2887634E-04 0.289E-04
 d Force = 0.2418711E-01[ 0.242E-01, 0.242E-01]  d Ewald  = 0.2418711E-01-0.109E-10

[...]

 stress matrix after NEB project (eV)
     -2.65410     -0.00000     -0.00000
     -0.00000     -2.65410      0.00000
     -0.00000      0.00000     -1.20901
  FORCES: max atom, RMS     0.057207    0.027316
  FORCE total and by dimension    0.061080    0.057207
  Stress total and by dimension    3.943379    2.654104
 Conjugate gradient step on ions:
 trial-energy change:   -0.000137  1 .order   -0.000061   -0.000536    0.000414
  (g-gl).g = 0.267E-03      g.g   = 0.312E-03  gl.gl    = 0.412E-02
 g(Force)  = 0.312E-03   g(Stress)= 0.000E+00 ortho     = 0.140E-04
 gamma     =   0.06467
 trial     =   1.71442
 opt step  =   0.96702  (harmonic =   0.96702) maximal distance =0.00196054
 next E    =   -20.616495   (d E  =  -0.00015)

[...]

 eigenvalues of (default mixing * dielectric matrix)
  average eigenvalue GAMMA=   0.2072
  0.3230  0.0914

[...]

 d Force =-0.5976876E-05[-0.149E-04, 0.291E-05]  d Energy =-0.4807035E-04 0.421E-04
 d Force = 0.1522517E+00[ 0.152E+00, 0.152E+00]  d Ewald  = 0.1522517E+00-0.215E-09

[...]

 d Force = 0.3327685E-05[-0.578E-05, 0.124E-04]  d Energy = 0.7304962E-05-0.398E-05
 d Force =-0.1273008E+00[-0.127E+00,-0.127E+00]  d Ewald  =-0.1273008E+00-0.327E-10

[...]

 Broyden mixing:
  rms(total) = 0.10909E-02    rms(broyden)= 0.10895E-02
  rms(prec ) = 0.14113E-02
  weight for this iteration     100.00

[...]

 d Force = 0.9786441E-07[-0.269E-05, 0.289E-05]  d Energy = 0.6771958E-04-0.676E-04
 d Force = 0.6365224E-01[ 0.637E-01, 0.637E-01]  d Ewald  = 0.6365224E-01 0.582E-10

[...]

 eigenvalue-minimisations  :   264
 total energy-change (2. order) : 0.2202951E-04  (-0.1503138E-04)
 number of electron      54.9999945 magnetization       0.0002114
 augmentation part       35.1100466 magnetization       0.0001040

 Broyden mixing:
  rms(total) = 0.36972E-03    rms(broyden)= 0.25794E-03
  rms(prec ) = 0.42569E-03
  weight for this iteration     100.00
  WARNING: grid for Broyden might be to small

[...]

--------------------------------------- Iteration     31(   2)  ---------------------------------------

 eigenvalue-minimisations  :   264
 total energy-change (2. order) :-0.2569990E-04  (-0.2138266E-05)
 number of electron      54.9999945 magnetization       0.0002114
 augmentation part       35.1100466 magnetization       0.0001040

 Free energy of the ion-electron system (eV)
  alpha Z        PSCENC =       137.03633445
  Ewald energy   TEWEN  =     25390.46700348
  -Hartree energ DENC   =    -32086.81970131
  -exchange      EXHF   =         0.00000000
  -V(xc)+E(xc)   XCENC  =       223.19898180
  PAW double counting   =      6578.17766210    -7116.49676418
  entropy T*S    EENTRO =         0.02830777
  eigenvalues    EBANDS =       -99.07446442
  atomic energy  EATOM  =      6954.78820100
  Solvation  Ediel_sol  =         0.00000000
  free energy    TOTEN  =       -18.69443932 eV

  energy without entropy =      -18.72274709  energy(sigma->0) =      -18.70387524

 average (electrostatic) potential at core
  the test charge radii are     0.9430
  (the norm of the test charge is              1.0000)
       1 -69.5255       2 -70.2509       3 -70.4897       4 -70.3342       5 -69.5777

 E-fermi :   0.0692     XC(G=0):  -6.3481     alpha+bet : -5.9416

 Fermi energy:         0.0691662827

[...]

 k-point     3 :      -0.3333    0.3333    0.0000
  band No.  band energies     occupation
      1      -3.2189      1.00000
      2      -3.1557      1.00000
      3      -3.1549      1.00000
      4      -3.0548      1.00000
      5      -3.0173      1.00000
      6      -2.8143      1.00000
      7      -2.7003      1.00000
      8      -2.5687      1.00000
      9      -2.4962      1.00000
     10      -2.3134      1.00000
     11      -2.0047      1.00000
     12      -1.8705      1.00000
     13      -1.3617      1.00000
     14      -1.3126      1.00000
     15      -1.3097      1.00000
     16      -1.3026      1.00000
     17      -1.2535      1.00000
     18      -1.2398      1.00000
     19      -0.9765      1.00000
     20      -0.8049      1.00000
     21      -0.6996      1.00000
     22      -0.6069      1.00001
     23      -0.6014      1.00001
     24      -0.4566      1.00064
     25      -0.4381      1.00098
     26       4.1748     -0.00000
     27       4.2158     -0.00000
     28       4.4726     -0.00000
     29       4.8758     -0.00000
     30       5.5103     -0.00000
     31       5.5864      0.00000
     32       6.3864      0.00000
     33       6.4209      0.00000
     34       7.1313      0.00000
     35       7.8043      0.00000
     36       8.8301      0.00000
 Fermi energy:         0.0691662827

 spin component 2

[...]

 k-point     3 :      -0.3333    0.3333    0.0000
  band No.  band energies     occupation
      1      -3.2188      1.00000
      2      -3.1557      1.00000
      3      -3.1549      1.00000
      4      -3.0548      1.00000
      5      -3.0173      1.00000
      6      -2.8143      1.00000
      7      -2.7003      1.00000
      8      -2.5687      1.00000
      9      -2.4962      1.00000
     10      -2.3134      1.00000
     11      -2.0047      1.00000
     12      -1.8705      1.00000
     13      -1.3617      1.00000
     14      -1.3126      1.00000
     15      -1.3097      1.00000
     16      -1.3026      1.00000
     17      -1.2535      1.00000
     18      -1.2397      1.00000
     19      -0.9765      1.00000
     20      -0.8048      1.00000
     21      -0.6996      1.00000
     22      -0.6069      1.00001
     23      -0.6013      1.00001
     24      -0.4565      1.00064
     25      -0.4381      1.00098
     26       4.1748     -0.00000
     27       4.2158     -0.00000
     28       4.4726     -0.00000
     29       4.8758     -0.00000
     30       5.5103     -0.00000
     31       5.5865      0.00000
     32       6.3865      0.00000
     33       6.4209      0.00000
     34       7.1314      0.00000
     35       7.8043      0.00000
     36       8.8301      0.00000

[...]

 soft charge-density along one line, spin component           2
         0         1         2         3         4         5         6         7         8         9
 total charge-density along one line

------------------------ aborting loop because EDIFF is reached ----------------------------------------

         DFTD3 V3.0 Rev 1
 Edisp (eV)   -1.92206

 E6    (eV) :    -0.7734
 E8    (eV) :    -1.1486
 % E8        : 59.76

  FORCE on cell =-STRESS in cart. coord.  units (eV):
  Direction    XX          YY          ZZ          XY          YZ          ZX
  Alpha Z   137.03633   137.03633   137.03633
  Ewald   29053.00556 29053.00556-32715.54694    -0.00000     0.00000    -0.00000
  Hartree 30945.28054 30945.28054-29803.92632     0.00000    -0.00000    -0.00000
  E(xc)    -321.65320  -321.65311  -322.11631    -0.00008     0.00000     0.00000
  Local  -60631.93234-60631.93524 61898.38737     0.00251    -0.00000    -0.00000
  n-local  -110.19923  -105.33681  -112.53542     4.21123    -0.63128     1.10047
  augment   474.46256   474.46534   469.68715    -0.00241    -0.00001    -0.00002
  Kinetic   458.40484   443.99100   449.40466   -12.48250    -1.20429     2.08593
  Fock        0.00000     0.00000     0.00000     0.00000     0.00000     0.00000
  vdW        -2.36355    -2.36355    -1.68194     0.00000     0.00000     0.00000
  Total      -2.73421    -2.73421    -1.29141    -0.00000    -0.00000    -0.00000
  in kB     -32.83411   -32.83411   -15.50806    -0.00000    -0.00000    -0.00000

 VOLUME and BASIS-vectors are now :
  energy-cutoff  :      400.00
  volume of cell :      133.42
      direct lattice vectors                 reciprocal lattice vectors
     2.566797733  0.000000000  0.000000000     0.389590495 -0.224930177  0.000000000
     1.283398867  2.222912043  0.000000000     0.000000000  0.449860355  0.000000000
     0.000000000  0.000000000 23.383126160     0.000000000  0.000000000  0.042765881

  length of vectors
     2.566797733  2.566797733 23.383126160     0.449860355  0.449860355  0.042765881

 FORCES acting on ions
    electron-ion (+dipol)            ewald-force                    non-local-force                 convergence-correction
   -.413E-05 -.238E-05 0.431E+04   0.797E-08 -.252E-08 -.430E+04   0.000E+00 0.139E-16 -.373E+01   -.119E-08 -.685E-09 0.163E+00
   0.522E-05 0.424E-05 0.220E+04   -.242E-07 -.631E-09 -.220E+04   0.208E-16 0.000E+00 0.413E+00   0.390E-08 0.224E-08 0.569E+00
   -.424E-05 -.217E-05 0.157E+02   0.261E-07 0.104E-07 -.165E+02   0.000E+00 0.867E-18 0.161E+00   -.287E-08 -.165E-08 0.561E+00
   0.156E-05 0.901E-06 -.216E+04   0.113E-08 -.106E-07 0.216E+04   0.000E+00 0.000E+00 -.975E+00   0.383E-08 0.221E-08 0.443E+00
   0.936E-05 0.664E-05 -.436E+04   -.109E-07 0.341E-08 0.435E+04   0.000E+00 -.694E-17 0.398E+01   0.468E-08 0.285E-08 0.108E+00
   0.776E-05 0.723E-05 -.168E+01   0.138E-12 -.751E-13 0.909E-12   0.208E-16 0.781E-17 -.155E+00   0.835E-08 0.496E-08 0.184E+01

 POSITION                                       TOTAL-FORCE (eV/Angst)
      0.00000      0.00000      0.00000        -0.000000     -0.000000      0.524556
      1.28340      0.74097      2.09578        -0.000000      0.000000     -0.556177
      2.56680      1.48194      4.10912         0.000000     -0.000000      0.008169
     -0.00000     -0.00000      6.13042        -0.000000     -0.000000      0.023860
      1.28340      0.74097      8.11234         0.000000     -0.000000     -0.000408
    total drift:                                0.000008      0.000007      0.007561

  FREE ENERGIE OF THE ION-ELECTRON SYSTEM (eV)
  free  energy   TOTEN  =       -20.61649764 eV

  energy  without entropy=      -20.64480541  energy(sigma->0) =      -20.62593356

 d Force = 0.5599697E-06[-0.179E-06, 0.130E-05]  d Energy =-0.6152602E-04 0.621E-04
 d Force =-0.3070933E-01[-0.307E-01,-0.307E-01]  d Ewald  =-0.3070933E-01-0.327E-10

 stress matrix after NEB project (eV)
     -2.73421     -0.00000     -0.00000
     -0.00000     -2.73421     -0.00000
     -0.00000     -0.00000     -1.29141
  FORCES: max atom, RMS     0.023860    0.011280
  FORCE total and by dimension    0.025223    0.023860
  Stress total and by dimension    4.076701    2.734205

 reached required accuracy - stopping structural energy minimisation