 vasp.6.3.2 27Jun22 (build Aug 17 2022 15:43:34) complex

 executed on           tv2STDVTST date 2025.01.21  19:55:10

 INCAR:
   ISTART = 0
   ICHARG = 2
   IPIPOL = 3
   IVDW = 11
   IDIPOL = 3
   IVDW = 11
   ISPIN = 2
   ENCUT = 400
   PREC = Normal
   EDIFF = 2E-04
   GGA = PE
   ISMEAR = 1
   SIGMA = 0.2
   LREAL = .FALSE.
   ISYM = 1
   NSW = 800
   IBRION = 2
   POTIM = 0.5
   ISIF = 2
   EDIFFG = -.03
   NPAR = 4
   LWAVE = .FALSE.
   LCHARG = .FALSE.

 POTCAR:    PAW_PBE Cu 22Jun2005
|           W    W    AA    RRRRR   N    N  II  N    N   GGGG   !!!           |
|           W    W   A  A   R    R  NN   N  II  NN   N  G    G  !!!           |
|           W    W  A    A  R    R  N N  N  II  N N  N  G       !!!           |
|           W WW W  AAAAAA  RRRRR   N  N N  II  N  N N  G  GGG   !            |
|           WW  WW  A    A  R   R   N   NN  II  N   NN  G    G                |
|           W    W  A    A  R    R  N    N  II  N    N   GGGG   !!!           |
|     You use a magnetic or noncollinear calculation, but did not specify     |
|     the initial magnetic moment with the MAGMOM tag. Note that a            |
|     default of 1 will be used for all atoms. This ferromagnetic setup       |
|     may break the symmetry of the crystal, in particular it may rule        |
|     out finding an antiferromagnetic solution. Thence, we recommend         |
|     setting the initial magnetic moment manually or verifying carefully     |
|     that this magnetic setup is desired.                                    |

   TITEL  = PAW_PBE Cu 22Jun2005
   POMASS =   63.546; ZVAL   =   11.000    mass and valenz
   ENMAX  =  295.446; ENMIN  =  221.585 eV

  PAW_PBE Cu 22Jun2005                  :

 POSCAR: FCC Cu
  positions in cartesian coordinates
 exchange correlation table for  LEXCH =        8
   RHO(1)=    0.500       N(1)  =     2000
   RHO(2)=  100.500       N(2)  =     4000

 VTST: version 4.2, (08/11/21)

 CHAIN: initializing optimizer

 OPT: Using VASP Conjugate-Gradient optimizer
 CHAIN: Read ICHAIN            0

 POSCAR: FCC Cu
  positions in cartesian coordinates

 ion  position               nearest neighbor table
   1  0.000  0.000  0.000-  16 2.57  12 2.57  10 2.57   7 2.57   4 2.57   8 2.57   2 2.57   6 2.57
                             3 2.57
   2  0.000  0.333  0.000-  10 2.57  17 2.57  11 2.57   4 2.57   5 2.57   1 2.57   3 2.57   8 2.57
                             9 2.57
   3  1.000  0.667  0.000-  18 2.57  12 2.57  11 2.57   7 2.57   9 2.57   1 2.57   2 2.57   5 2.57
                             6 2.57
   4  0.333  0.000  0.000-  10 2.57  15 2.57  13 2.57   2 2.57   6 2.57   1 2.57   5 2.57   9 2.57
                             7 2.57
   5  0.333  0.333  0.000-  11 2.57  13 2.57  14 2.57   2 2.57   8 2.57   4 2.57   7 2.57   3 2.57
                             6 2.57
   6  0.333  0.667  0.000-  12 2.57  15 2.57  14 2.57   4 2.57   9 2.57   1 2.57   8 2.57   5 2.57
                             3 2.57
   7  0.667  0.000  0.000-  18 2.57  13 2.57  16 2.57   8 2.57   3 2.57   1 2.57   5 2.57   9 2.57
                             4 2.57
   8  0.667  0.333  0.000-  14 2.57  16 2.57  17 2.57   7 2.57   5 2.57   1 2.57   6 2.57   2 2.57
                             9 2.57
   9  0.667  0.667  0.000-  15 2.57  18 2.57  17 2.57   3 2.57   6 2.57   4 2.57   7 2.57   2 2.57
                             8 2.57
  10  0.111  0.111  0.071-  19 2.57   4 2.57   2 2.57  21 2.57  25 2.57   1 2.57  16 2.57  13 2.57
                            17 2.57  11 2.57  15 2.57  12 2.57
  11  0.111  0.444  0.071-   5 2.57  20 2.57  19 2.57   2 2.57   3 2.57  26 2.57  13 2.57  14 2.57
                            10 2.57  12 2.57  17 2.57  18 2.57
  12  0.111  0.778  0.071-  21 2.57   1 2.57   6 2.57   3 2.57  20 2.57  27 2.57  16 2.57  18 2.57
                            10 2.57  11 2.57  14 2.57  15 2.57
  13  0.444  0.111  0.071-  22 2.57   5 2.57  24 2.57   7 2.57   4 2.57  19 2.57  11 2.57  15 2.57
                            10 2.57  14 2.57  18 2.57  16 2.57
  14  0.444  0.444  0.071-   8 2.57  23 2.57  22 2.57  20 2.57   5 2.57   6 2.57  11 2.57  17 2.57
                            13 2.57  16 2.57  12 2.57  15 2.57
  15  0.444  0.778  0.071-   9 2.57  24 2.57   4 2.57   6 2.57  23 2.57  21 2.57  13 2.57  18 2.57
                            10 2.57  17 2.57  14 2.57  12 2.57
  16  0.778  0.111  0.071-   1 2.57  25 2.57   8 2.57  27 2.57   7 2.57  22 2.57  17 2.57  12 2.57
                            10 2.57  14 2.57  18 2.57  13 2.57
  17  0.778  0.444  0.071-  26 2.57  25 2.57   2 2.57  23 2.57   8 2.57   9 2.57  16 2.57  14 2.57
                            10 2.57  15 2.57  11 2.57  18 2.57
  18  0.778  0.778  0.071-  27 2.57   3 2.57   7 2.57  24 2.57   9 2.57  26 2.57  12 2.57  15 2.57
                            13 2.57  16 2.57  11 2.57  17 2.57
  19  0.222  0.222  0.141-  10 2.57  29 2.57  11 2.57  31 2.57  13 2.57  32 2.57  25 2.57  22 2.57
                            26 2.57  20 2.57  21 2.57  24 2.57
  20  0.222  0.556  0.141-  11 2.57  32 2.57  14 2.57  12 2.57  30 2.57  33 2.57  22 2.57  23 2.57
                            19 2.57  21 2.57  26 2.57  27 2.57
  21  0.222  0.889  0.141-  12 2.57  28 2.57  33 2.57  10 2.57  31 2.57  15 2.57  25 2.57  19 2.57
                            20 2.57  23 2.57  24 2.57  27 2.57
  22  0.556  0.222  0.141-  13 2.57  32 2.57  14 2.57  34 2.57  35 2.57  16 2.57  27 2.57  20 2.57
                            24 2.57  19 2.57  23 2.57  25 2.57
  23  0.556  0.556  0.141-  14 2.57  35 2.57  33 2.57  17 2.57  15 2.57  36 2.57  26 2.57  20 2.57
                            25 2.57  22 2.57  21 2.57  24 2.57
  24  0.556  0.889  0.141-  15 2.57  36 2.57  13 2.57  18 2.57  34 2.57  31 2.57  27 2.57  22 2.57
                            19 2.57  26 2.57  23 2.57  21 2.57
  25  0.889  0.222  0.141-  16 2.57  17 2.57  28 2.57  10 2.57  29 2.57  35 2.57  26 2.57  21 2.57
                            19 2.57  23 2.57  22 2.57  27 2.57
  26  0.889  0.556  0.141-  17 2.57  29 2.57  36 2.57  30 2.57  18 2.57  11 2.57  27 2.57  25 2.57
                            23 2.57  19 2.57  24 2.57  20 2.57
  27  0.889  0.889  0.141-  18 2.57  34 2.57  30 2.57  16 2.57  24 2.57  12 2.57  28 2.57  22 2.57
                            26 2.57  25 2.57  20 2.57  21 2.57
  28  0.000  0.000  0.212-  43 2.57  21 2.57  25 2.57  39 2.57  37 2.57  27 2.57  34 2.57  31 2.57
                            35 2.57  29 2.57  33 2.57  30 2.57
  29  0.000  0.333  0.212-  19 2.57  37 2.57  26 2.57  44 2.57  25 2.57  38 2.57  31 2.57  32 2.57
                            28 2.57  30 2.57  35 2.57  36 2.57
  30  1.000  0.667  0.212-  45 2.57  27 2.57  39 2.57  26 2.57  38 2.57  20 2.57  34 2.57  36 2.57
                            28 2.57  29 2.57  32 2.57  33 2.57
  31  0.333  0.000  0.212-  37 2.57  19 2.57  42 2.57  40 2.57  24 2.57  21 2.57  29 2.57  33 2.57
                            28 2.57  32 2.57  36 2.57  34 2.57
  32  0.333  0.333  0.212-  38 2.57  22 2.57  40 2.57  20 2.57  41 2.57  19 2.57  29 2.57  35 2.57
                            31 2.57  34 2.57  30 2.57  33 2.57
  33  0.333  0.667  0.212-  21 2.57  23 2.57  39 2.57  42 2.57  41 2.57  20 2.57  31 2.57  36 2.57
                            28 2.57  35 2.57  32 2.57  30 2.57
  34  0.667  0.000  0.212-  27 2.57  22 2.57  45 2.57  40 2.57  43 2.57  24 2.57  35 2.57  30 2.57
                            28 2.57  32 2.57  36 2.57  31 2.57
  35  0.667  0.333  0.212-  41 2.57  43 2.57  23 2.57  44 2.57  25 2.57  22 2.57  34 2.57  32 2.57
                            28 2.57  33 2.57  29 2.57  36 2.57
  36  0.667  0.667  0.212-  42 2.57  24 2.57  26 2.57  45 2.57  44 2.57  23 2.57  30 2.57  33 2.57
                            31 2.57  34 2.57  29 2.57  35 2.57
  37  0.111  0.111  0.283-  46 2.57  31 2.57  29 2.57  48 2.57  52 2.57  28 2.57  43 2.57  40 2.57
                            44 2.57  38 2.57  42 2.57  39 2.57
  38  0.111  0.444  0.283-  32 2.57  47 2.57  46 2.57  29 2.57  30 2.57  53 2.57  40 2.57  41 2.57
                            37 2.57  39 2.57  44 2.57  45 2.57
  39  0.111  0.778  0.283-  48 2.57  28 2.57  33 2.57  30 2.57  47 2.57  54 2.57  43 2.57  45 2.57
                            37 2.57  38 2.57  41 2.57  42 2.57
  40  0.444  0.111  0.283-  49 2.57  32 2.57  51 2.57  34 2.57  31 2.57  46 2.57  38 2.57  42 2.57
                            37 2.57  41 2.57  45 2.57  43 2.57
  41  0.444  0.444  0.283-  35 2.57  50 2.57  49 2.57  47 2.57  32 2.57  33 2.57  38 2.57  44 2.57
                            40 2.57  43 2.57  39 2.57  42 2.57
  42  0.444  0.778  0.283-  36 2.57  51 2.57  31 2.57  33 2.57  50 2.57  48 2.57  40 2.57  45 2.57
                            37 2.57  44 2.57  41 2.57  39 2.57
  43  0.778  0.111  0.283-  28 2.57  52 2.57  35 2.57  54 2.57  34 2.57  49 2.57  44 2.57  39 2.57
                            37 2.57  41 2.57  45 2.57  40 2.57
  44  0.778  0.444  0.283-  53 2.57  52 2.57  29 2.57  50 2.57  35 2.57  36 2.57  43 2.57  41 2.57
                            37 2.57  42 2.57  38 2.57  45 2.57
  45  0.778  0.778  0.283-  54 2.57  30 2.57  34 2.57  51 2.57  36 2.57  53 2.57  39 2.57  42 2.57
                            40 2.57  43 2.57  38 2.57  44 2.57
  46  0.222  0.222  0.353-  37 2.57  38 2.57  40 2.57  56 2.57  58 2.57  59 2.57  52 2.57  49 2.57
                            53 2.57  47 2.57  48 2.57  51 2.57
  47  0.222  0.556  0.353-  38 2.57  41 2.57  39 2.57  59 2.57  57 2.57  60 2.57  49 2.57  50 2.57
                            46 2.57  48 2.57  53 2.57  54 2.57
  48  0.222  0.889  0.353-  39 2.57  37 2.57  42 2.57  55 2.57  60 2.57  58 2.57  52 2.57  46 2.57
                            47 2.57  50 2.57  51 2.57  54 2.57
  49  0.556  0.222  0.353-  40 2.57  41 2.57  43 2.57  59 2.57  61 2.57  62 2.57  54 2.57  47 2.57
                            51 2.57  46 2.57  50 2.57  52 2.57
  50  0.556  0.556  0.353-  41 2.57  44 2.57  42 2.57  62 2.57  60 2.57  63 2.57  53 2.57  47 2.57
                            52 2.57  49 2.57  48 2.57  51 2.57
  51  0.556  0.889  0.353-  42 2.57  40 2.57  45 2.57  54 2.57  63 2.57  61 2.57  58 2.57  49 2.57
                            46 2.57  53 2.57  50 2.57  48 2.57
  52  0.889  0.222  0.353-  43 2.57  44 2.57  37 2.57  55 2.57  56 2.57  62 2.57  53 2.57  48 2.57
                            46 2.57  50 2.57  49 2.57  54 2.57
  53  0.889  0.556  0.353-  44 2.57  45 2.57  38 2.57  56 2.57  63 2.57  57 2.57  54 2.57  52 2.57
                            50 2.57  46 2.57  51 2.57  47 2.57
  54  0.889  0.889  0.353-  45 2.57  61 2.57  43 2.57  51 2.57  57 2.57  39 2.57  49 2.57  55 2.57
                            53 2.57  52 2.57  47 2.57  48 2.57
  55  0.000  0.000  0.424-  70 2.57  48 2.57  52 2.57  66 2.57  64 2.57  54 2.57  61 2.57  58 2.57
                            62 2.57  56 2.57  60 2.57  57 2.57
  56  0.000  0.333  0.424-  46 2.57  53 2.57  64 2.57  71 2.57  52 2.57  65 2.57  58 2.57  59 2.57
                            55 2.57  57 2.57  62 2.57  63 2.57
  57  1.000  0.667  0.424-  72 2.57  54 2.57  66 2.57  53 2.57  65 2.57  47 2.57  61 2.57  63 2.57
                            55 2.57  56 2.57  59 2.57  60 2.57
[...]
     0.000000000  0.000000000 29.670471191     0.000000000  0.000000000  0.033703543

  length of vectors
     7.700393200  7.700393200 29.670471191     0.149953452  0.149953452  0.033703543

 FORCES acting on ions
    electron-ion (+dipol)            ewald-force                    non-local-force                 convergence-correction
   -.399E-06 -.230E-06 0.597E+04   0.805E-07 -.216E-06 -.597E+04   -.173E-17 -.607E-17 -.213E+01   -.856E-08 -.495E-08 -.157E+00
   0.154E-04 0.356E-04 0.597E+04   -.200E-06 0.441E-06 -.597E+04   -.434E-18 -.867E-18 -.213E+01   -.743E-08 -.292E-08 -.157E+00
   -.185E-04 -.329E-04 0.597E+04   0.279E-06 -.310E-06 -.597E+04   0.781E-17 -.173E-17 -.213E+01   -.990E-08 -.692E-08 -.157E+00
   0.389E-04 -.250E-05 0.597E+04   0.189E-06 -.194E-06 -.597E+04   0.434E-17 -.954E-17 -.213E+01   -.627E-08 -.512E-08 -.157E+00
   0.116E-05 0.239E-05 0.597E+04   0.338E-07 0.442E-06 -.597E+04   0.260E-17 0.173E-17 -.213E+01   -.856E-08 -.506E-08 -.157E+00
   0.191E-04 -.337E-04 0.597E+04   -.239E-06 -.235E-06 -.597E+04   -.520E-17 -.954E-17 -.213E+01   -.723E-08 -.680E-08 -.157E+00
   -.395E-04 -.864E-06 0.597E+04   -.248E-06 -.117E-06 -.597E+04   0.130E-17 0.520E-17 -.213E+01   -.108E-07 -.503E-08 -.157E+00
   -.175E-04 0.360E-04 0.597E+04   0.189E-06 0.444E-06 -.597E+04   -.121E-16 -.520E-17 -.213E+01   -.967E-08 -.304E-08 -.157E+00
   -.178E-05 -.139E-05 0.597E+04   -.168E-07 -.286E-06 -.597E+04   -.173E-17 0.347E-17 -.213E+01   -.859E-08 -.492E-08 -.157E+00
   0.337E-04 0.207E-04 0.431E+04   -.922E-07 -.263E-06 -.431E+04   -.347E-17 0.347E-17 -.787E+00   0.298E-07 0.170E-07 0.102E+00
   0.574E-05 -.162E-05 0.431E+04   -.155E-06 0.549E-06 -.431E+04   0.249E-17 0.130E-17 -.787E+00   0.296E-07 0.194E-07 0.102E+00
   0.143E-05 -.411E-04 0.431E+04   0.252E-06 -.298E-06 -.431E+04   0.640E-17 0.867E-18 -.787E+00   0.313E-07 0.203E-07 0.102E+00
   0.688E-06 0.964E-05 0.431E+04   0.809E-07 -.109E-06 -.431E+04   0.651E-18 0.542E-17 -.787E+00   0.313E-07 0.158E-07 0.102E+00
   -.722E-05 -.116E-05 0.431E+04   -.433E-07 0.604E-06 -.431E+04   0.445E-17 0.173E-17 -.787E+00   0.338E-07 0.194E-07 0.102E+00
   0.248E-04 -.176E-04 0.431E+04   -.405E-06 -.322E-06 -.431E+04   0.358E-17 0.108E-17 -.787E+00   0.325E-07 0.177E-07 0.102E+00
   -.377E-04 0.224E-04 0.431E+04   -.737E-08 -.787E-07 -.431E+04   0.130E-17 0.347E-17 -.787E+00   0.338E-07 0.172E-07 0.102E+00
   -.181E-05 0.348E-04 0.431E+04   0.132E-06 0.411E-06 -.431E+04   -.542E-18 0.867E-18 -.787E+00   0.314E-07 0.191E-07 0.102E+00
   -.298E-04 -.163E-04 0.431E+04   -.411E-07 -.497E-06 -.431E+04   -.867E-18 0.304E-17 -.787E+00   0.306E-07 0.172E-07 0.102E+00
   0.302E-04 0.178E-04 0.259E+04   -.712E-07 -.202E-07 -.259E+04   0.569E-18 -.488E-18 -.487E+00   0.166E-05 0.958E-06 0.574E+00
   0.174E-05 -.303E-04 0.259E+04   -.139E-06 0.882E-06 -.259E+04   -.108E-18 -.705E-18 -.487E+00   0.166E-05 0.958E-06 0.574E+00
   0.386E-04 -.213E-04 0.259E+04   -.435E-06 -.473E-06 -.259E+04   0.894E-18 -.488E-18 -.487E+00   0.167E-05 0.955E-06 0.574E+00
   -.253E-04 0.192E-04 0.259E+04   0.241E-06 0.375E-06 -.259E+04   0.325E-18 -.217E-18 -.487E+00   0.166E-05 0.958E-06 0.574E+00
   0.764E-05 0.653E-05 0.259E+04   -.122E-06 0.437E-06 -.259E+04   0.488E-18 0.000E+00 -.487E+00   0.167E-05 0.962E-06 0.574E+00
   -.738E-06 -.832E-05 0.259E+04   -.917E-06 -.340E-06 -.259E+04   0.732E-18 0.596E-18 -.487E+00   0.166E-05 0.949E-06 0.574E+00
   -.119E-05 0.434E-04 0.259E+04   -.209E-06 -.353E-06 -.259E+04   0.488E-18 -.190E-18 -.487E+00   0.166E-05 0.965E-06 0.574E+00
   -.580E-05 0.672E-05 0.259E+04   0.222E-06 -.281E-07 -.259E+04   0.111E-17 -.271E-18 -.487E+00   0.165E-05 0.963E-06 0.574E+00
   -.229E-04 -.197E-04 0.259E+04   0.179E-05 -.385E-06 -.259E+04   0.623E-18 -.163E-18 -.487E+00   0.165E-05 0.955E-06 0.574E+00
   -.288E-07 -.166E-07 0.864E+03   0.645E-07 -.440E-06 -.865E+03   -.759E-18 0.542E-18 -.311E-01   0.340E-05 0.196E-05 0.100E+01
   0.146E-04 0.303E-04 0.864E+03   -.210E-06 0.408E-06 -.865E+03   -.163E-17 0.542E-18 -.311E-01   0.341E-05 0.196E-05 0.100E+01
   -.139E-04 -.296E-04 0.864E+03   0.550E-06 -.296E-06 -.865E+03   0.125E-17 -.867E-18 -.311E-01   0.341E-05 0.196E-05 0.100E+01
   0.339E-04 -.542E-06 0.864E+03   0.295E-07 -.330E-06 -.865E+03   -.922E-18 0.152E-17 -.311E-01   0.340E-05 0.198E-05 0.100E+01
   0.212E-05 0.293E-05 0.864E+03   -.141E-07 0.563E-06 -.865E+03   -.705E-18 0.976E-18 -.311E-01   0.340E-05 0.196E-05 0.100E+01
   0.155E-04 -.309E-04 0.864E+03   -.330E-06 -.816E-07 -.865E+03   0.119E-17 0.136E-17 -.311E-01   0.339E-05 0.196E-05 0.100E+01
   -.343E-04 0.142E-05 0.864E+03   -.220E-06 -.425E-07 -.865E+03   0.217E-18 -.542E-18 -.311E-01   0.340E-05 0.198E-05 0.100E+01
   -.169E-04 0.314E-04 0.864E+03   0.228E-06 0.438E-06 -.865E+03   0.596E-18 -.108E-18 -.311E-01   0.339E-05 0.196E-05 0.100E+01
   -.264E-05 -.188E-05 0.864E+03   -.167E-06 -.312E-06 -.865E+03   -.103E-17 -.379E-18 -.311E-01   0.340E-05 0.196E-05 0.100E+01
   0.332E-04 0.204E-04 -.850E+03   -.109E-06 -.288E-06 0.850E+03   0.379E-17 0.108E-18 -.449E+00   0.175E-05 0.101E-05 0.807E+00
   0.573E-05 -.177E-05 -.850E+03   -.147E-06 0.569E-06 0.850E+03   0.276E-17 0.217E-18 -.449E+00   0.172E-05 0.103E-05 0.807E+00
   0.114E-05 -.408E-04 -.850E+03   0.267E-06 -.297E-06 0.850E+03   0.206E-17 0.184E-17 -.449E+00   0.175E-05 0.102E-05 0.807E+00
   0.551E-06 0.969E-05 -.850E+03   0.640E-07 -.111E-06 0.850E+03   0.705E-18 0.152E-17 -.449E+00   0.175E-05 0.978E-06 0.807E+00
   -.765E-05 -.142E-05 -.850E+03   -.482E-07 0.639E-06 0.850E+03   0.542E-18 0.141E-17 -.449E+00   0.178E-05 0.103E-05 0.807E+00
   0.241E-04 -.175E-04 -.850E+03   -.438E-06 -.325E-06 0.850E+03   0.651E-18 0.141E-17 -.449E+00   0.175E-05 0.101E-05 0.807E+00
   -.376E-04 0.220E-04 -.850E+03   0.239E-07 -.866E-07 0.850E+03   0.813E-18 0.976E-18 -.449E+00   0.176E-05 0.101E-05 0.807E+00
   -.209E-05 0.341E-04 -.850E+03   0.125E-06 0.410E-06 0.850E+03   0.157E-17 -.108E-18 -.449E+00   0.175E-05 0.101E-05 0.807E+00
   -.295E-04 -.161E-04 -.850E+03   -.296E-07 -.512E-06 0.850E+03   0.146E-17 -.173E-17 -.449E+00   0.176E-05 0.101E-05 0.807E+00
   0.298E-04 0.176E-04 -.258E+04   -.715E-07 -.200E-07 0.258E+04   -.596E-18 0.103E-17 0.696E-01   0.306E-05 0.177E-05 0.886E+00
   0.182E-05 -.298E-04 -.258E+04   -.138E-06 0.883E-06 0.258E+04   0.111E-17 0.434E-18 0.696E-01   0.306E-05 0.177E-05 0.886E+00
   0.378E-04 -.209E-04 -.258E+04   -.435E-06 -.474E-06 0.258E+04   0.542E-19 0.103E-17 0.696E-01   0.305E-05 0.177E-05 0.886E+00
   -.249E-04 0.190E-04 -.258E+04   0.241E-06 0.374E-06 0.258E+04   0.542E-19 0.542E-19 0.696E-01   0.306E-05 0.177E-05 0.886E+00
   0.718E-05 0.627E-05 -.258E+04   -.123E-06 0.438E-06 0.258E+04   0.786E-18 0.542E-19 0.696E-01   0.308E-05 0.178E-05 0.886E+00
   -.750E-06 -.806E-05 -.258E+04   -.917E-06 -.341E-06 0.258E+04   0.192E-17 0.108E-18 0.696E-01   0.306E-05 0.175E-05 0.886E+00
   -.128E-05 0.425E-04 -.258E+04   -.208E-06 -.353E-06 0.258E+04   0.163E-18 0.759E-18 0.696E-01   0.306E-05 0.175E-05 0.886E+00
   -.558E-05 0.658E-05 -.258E+04   0.223E-06 -.274E-07 0.258E+04   0.298E-18 0.271E-18 0.696E-01   0.305E-05 0.178E-05 0.886E+00
   -.222E-04 -.193E-04 -.258E+04   0.179E-05 -.386E-06 0.258E+04   0.976E-18 0.542E-18 0.696E-01   0.307E-05 0.178E-05 0.886E+00
   -.168E-06 -.967E-07 -.430E+04   0.517E-07 -.418E-06 0.430E+04   -.173E-17 0.239E-17 0.519E+00   0.662E-06 0.382E-06 0.367E+00
   0.142E-04 0.299E-04 -.430E+04   -.207E-06 0.419E-06 0.430E+04   -.119E-17 0.173E-17 0.519E+00   0.660E-06 0.372E-06 0.367E+00
   -.139E-04 -.294E-04 -.430E+04   0.518E-06 -.303E-06 0.430E+04   -.542E-18 0.651E-18 0.519E+00   0.668E-06 0.387E-06 0.367E+00
   0.333E-04 -.744E-06 -.430E+04   0.611E-07 -.315E-06 0.430E+04   0.651E-18 0.173E-17 0.519E+00   0.652E-06 0.386E-06 0.367E+00
   0.210E-05 0.292E-05 -.430E+04   -.943E-08 0.540E-06 0.430E+04   0.195E-17 0.217E-18 0.519E+00   0.661E-06 0.382E-06 0.367E+00
   0.155E-04 -.307E-04 -.430E+04   -.317E-06 -.102E-06 0.430E+04   -.455E-17 0.195E-17 0.519E+00   0.653E-06 0.387E-06 0.367E+00
   -.341E-04 0.131E-05 -.430E+04   -.235E-06 -.399E-07 0.430E+04   -.651E-18 -.239E-17 0.519E+00   0.670E-06 0.385E-06 0.367E+00
   -.167E-04 0.313E-04 -.430E+04   0.221E-06 0.433E-06 0.430E+04   -.791E-17 -.173E-17 0.519E+00   0.662E-06 0.373E-06 0.367E+00
   -.265E-05 -.189E-05 -.430E+04   -.148E-06 -.308E-06 0.430E+04   -.423E-17 0.217E-18 0.519E+00   0.662E-06 0.382E-06 0.367E+00
   0.338E-04 0.208E-04 -.601E+04   -.175E-07 -.124E-06 0.601E+04   0.173E-17 0.104E-16 0.213E+01   0.102E-05 0.591E-06 0.219E+00
   0.613E-05 -.249E-05 -.601E+04   -.174E-06 0.447E-06 0.601E+04   -.117E-16 0.104E-16 0.213E+01   0.102E-05 0.589E-06 0.219E+00
   0.763E-06 -.422E-04 -.601E+04   0.280E-06 -.372E-06 0.601E+04   0.347E-17 0.347E-17 0.213E+01   0.102E-05 0.586E-06 0.219E+00
   0.121E-06 0.104E-04 -.601E+04   0.210E-06 -.129E-06 0.601E+04   0.156E-16 -.347E-17 0.213E+01   0.102E-05 0.588E-06 0.219E+00
   -.884E-05 -.207E-05 -.601E+04   -.429E-07 0.482E-06 0.601E+04   0.117E-16 -.434E-17 0.213E+01   0.102E-05 0.589E-06 0.219E+00
   0.238E-04 -.176E-04 -.601E+04   -.252E-06 -.308E-06 0.601E+04   0.737E-17 -.434E-17 0.213E+01   0.101E-05 0.593E-06 0.219E+00
   -.390E-04 0.224E-04 -.601E+04   -.218E-06 -.724E-07 0.601E+04   0.126E-16 0.954E-17 0.213E+01   0.102E-05 0.590E-06 0.219E+00
   -.229E-05 0.340E-04 -.601E+04   0.191E-06 0.414E-06 0.601E+04   0.134E-16 0.260E-17 0.213E+01   0.102E-05 0.581E-06 0.219E+00
   -.299E-04 -.163E-04 -.601E+04   -.542E-07 -.302E-06 0.601E+04   0.520E-17 0.173E-17 0.213E+01   0.103E-05 0.593E-06 0.219E+00
   -.686E-06 0.615E-04 -.241E+02   -.765E-13 0.180E-12 0.118E-10   0.725E-16 0.405E-16 -.105E+02   0.104E-03 0.602E-04 0.342E+02

 POSITION                                       TOTAL-FORCE (eV/Angst)
      0.00000      0.00000      0.00000         0.000000      0.000000      0.216127
      1.28340      2.22291      0.00000        -0.000000      0.000000      0.216127
     10.26719      4.44582      0.00000        -0.000000      0.000000      0.216127
      2.56680      0.00000      0.00000        -0.000000      0.000000      0.216127
      3.85020      2.22291      0.00000        -0.000000      0.000000      0.216127
      5.13360      4.44582      0.00000        -0.000000     -0.000000      0.216127
      5.13360      0.00000      0.00000        -0.000000      0.000000      0.216127
      6.41699      2.22291      0.00000        -0.000000      0.000000      0.216127
      7.70039      4.44582      0.00000        -0.000000      0.000000      0.216127
      1.28340      0.74097      2.09578         0.000000      0.000000     -0.210789
      2.56680      2.96388      2.09578         0.000000     -0.000000     -0.210789
      3.85020      5.18679      2.09578         0.000000     -0.000000     -0.210789
      3.85020      0.74097      2.09578         0.000000     -0.000000     -0.210789
      5.13360      2.96388      2.09578         0.000000     -0.000000     -0.210789
      6.41699      5.18679      2.09578         0.000000     -0.000000     -0.210789
      6.41699      0.74097      2.09578        -0.000000      0.000000     -0.210789
      7.70039      2.96388      2.09578         0.000000      0.000000     -0.210789
      8.98379      5.18679      2.09578         0.000000      0.000000     -0.210789
      2.56680      1.48194      4.13913        -0.000000     -0.000000      0.015910
      3.85020      3.70485      4.13913        -0.000000     -0.000000      0.015910
      5.13360      5.92777      4.13913        -0.000000     -0.000000      0.015910
      5.13360      1.48194      4.13913        -0.000000     -0.000000      0.015910
      6.41699      3.70485      4.13913        -0.000000     -0.000000      0.015910
      7.70039      5.92777      4.13913        -0.000000     -0.000000      0.015910
      7.70039      1.48194      4.13913        -0.000000     -0.000000      0.015910
      8.98379      3.70485      4.13913        -0.000000     -0.000000      0.015910
     10.26719      5.92777      4.13913        -0.000000     -0.000000      0.015910
      0.00000     -0.00000      6.17770         0.000000      0.000000     -0.009005
      1.28340      2.22291      6.17770        -0.000000      0.000000     -0.009005
     10.26719      4.44582      6.17770         0.000000      0.000000     -0.009005
      2.56680     -0.00000      6.17770         0.000000      0.000000     -0.009005
      3.85020      2.22291      6.17770        -0.000000     -0.000000     -0.009005
      5.13360      4.44582      6.17770        -0.000000      0.000000     -0.009005
      5.13360     -0.00000      6.17770        -0.000000      0.000000     -0.009005
      6.41699      2.22291      6.17770        -0.000000      0.000000     -0.009005
      7.70039      4.44582      6.17770         0.000000      0.000000     -0.009005
      1.28340      0.74097      8.23055        -0.000000     -0.000000     -0.008934
      2.56680      2.96388      8.23055        -0.000000      0.000000     -0.008934
      3.85020      5.18679      8.23055         0.000000     -0.000000     -0.008934
      3.85020      0.74097      8.23055         0.000000      0.000000     -0.008934
      5.13360      2.96388      8.23055        -0.000000      0.000000     -0.008934
      6.41699      5.18679      8.23055         0.000000     -0.000000     -0.008934
      6.41699      0.74097      8.23055         0.000000     -0.000000     -0.008934
      7.70039      2.96388      8.23055         0.000000     -0.000000     -0.008934
      8.98379      5.18679      8.23055         0.000000     -0.000000     -0.008934
      2.56680      1.48194     10.26674        -0.000000      0.000000     -0.017552
      3.85020      3.70485     10.26674         0.000000      0.000000     -0.017552
      5.13360      5.92777     10.26674         0.000000     -0.000000     -0.017552
      5.13360      1.48194     10.26674        -0.000000      0.000000     -0.017552
      6.41699      3.70485     10.26674         0.000000      0.000000     -0.017552
      7.70039      5.92777     10.26674        -0.000000      0.000000     -0.017552
      7.70039      1.48194     10.26674         0.000000     -0.000000     -0.017552
      8.98379      3.70485     10.26674         0.000000      0.000000     -0.017552
     10.26719      5.92777     10.26674         0.000000      0.000000     -0.017552
      0.00000      0.00000     12.31011         0.000000     -0.000000      0.019369
      1.28340      2.22291     12.31011         0.000000     -0.000000      0.019369
     10.26719      4.44582     12.31011         0.000000      0.000000      0.019369
      2.56680     -0.00000     12.31011         0.000000      0.000000      0.019369
      3.85020      2.22291     12.31011        -0.000000      0.000000      0.019369
      5.13360      4.44582     12.31011        -0.000000      0.000000      0.019369
      5.13360     -0.00000     12.31011        -0.000000     -0.000000      0.019369
      6.41699      2.22291     12.31011         0.000000     -0.000000      0.019369
      7.70039      4.44582     12.31011         0.000000      0.000000      0.019369
      1.28340      0.74097     14.35173        -0.000000     -0.000000     -0.005125
      2.56680      2.96388     14.35173        -0.000000     -0.000000     -0.005125
      3.85020      5.18679     14.35173        -0.000000     -0.000000     -0.005125
      3.85020      0.74097     14.35173        -0.000000     -0.000000     -0.005125
      5.13360      2.96388     14.35173        -0.000000     -0.000000     -0.005125
      6.41699      5.18679     14.35173         0.000000      0.000000     -0.005125
      6.41699      0.74097     14.35173         0.000000      0.000000     -0.005125
      7.70039      2.96388     14.35173         0.000000     -0.000000     -0.005125
      8.98379      5.18679     14.35173         0.000000     -0.000000     -0.005125
    total drift:                                0.000104      0.000122     -0.423236

  FREE ENERGIE OF THE ION-ELECTRON SYSTEM (eV)
  free  energy   TOTEN  =      -290.99102937 eV

  energy  without entropy=     -290.93436039  energy(sigma->0) =     -290.97213971

 d Force = 0.9347369E-03[-0.131E-02, 0.318E-02]  d Energy = 0.1730828E-02-0.796E-03
 d Force = 0.2995833E+03[ 0.299E+03, 0.300E+03]  d Ewald  = 0.2995833E+03 0.389E-05

 stress matrix after NEB project (eV)
    -38.60659     -0.00000     -0.00000
     -0.00000    -38.60659      0.00000
     -0.00000     -0.00000     -6.13248
  FORCES: max atom, RMS     0.019369    0.011851
  FORCE total and by dimension    0.100557    0.019369
  Stress total and by dimension   54.941283   38.606588

 reached required accuracy - stopping structural energy minimisation