 vasp.6.3.2 27Jun22 (build Aug 17 2022 15:43:34) complex

 executed on           tv2STDVTST date 2025.01.17  13:59:31

 INCAR:
   ISTART = 0
   ICHARG = 2
   IPIPOL = 3
   IVDW = 11
   IDIPOL = 3
   IVDW = 11
   ISPIN = 2
   ENCUT = 400
   PREC = Normal
   EDIFF = 2E-04
   GGA = PE
   ISMEAR = 1
   SIGMA = 0.2
   LREAL = .FALSE.
   ISYM = 1
   NSW = 800
   IBRION = 2
   POTIM = 0.5
   ISIF = 2
   EDIFFG = -.03
   NPAR = 4
   LWAVE = .FALSE.
   LCHARG = .FALSE.

 POTCAR:    PAW_PBE Cu 22Jun2005
|           W    W    AA    RRRRR   N    N  II  N    N   GGGG   !!!           |
|           W    W   A  A   R    R  NN   N  II  NN   N  G    G  !!!           |
|           W    W  A    A  R    R  N N  N  II  N N  N  G       !!!           |
|           W WW W  AAAAAA  RRRRR   N  N N  II  N  N N  G  GGG   !            |
|           WW  WW  A    A  R   R   N   NN  II  N   NN  G    G                |
|           W    W  A    A  R    R  N    N  II  N    N   GGGG   !!!           |
|     You use a magnetic or noncollinear calculation, but did not specify     |
|     the initial magnetic moment with the MAGMOM tag. Note that a            |
|     default of 1 will be used for all atoms. This ferromagnetic setup       |
|     may break the symmetry of the crystal, in particular it may rule        |
|     out finding an antiferromagnetic solution. Thence, we recommend         |
|     setting the initial magnetic moment manually or verifying carefully     |
|     that this magnetic setup is desired.                                    |

   TITEL  = PAW_PBE Cu 22Jun2005
   POMASS =   63.546; ZVAL   =   11.000    mass and valenz
   ENMAX  =  295.446; ENMIN  =  221.585 eV

  PAW_PBE Cu 22Jun2005                  :

 POSCAR: FCC Cu
  positions in cartesian coordinates
 exchange correlation table for  LEXCH =        8
   RHO(1)=    0.500       N(1)  =     2000
   RHO(2)=  100.500       N(2)  =     4000

 VTST: version 4.2, (08/11/21)

 CHAIN: initializing optimizer

 OPT: Using VASP Conjugate-Gradient optimizer
 CHAIN: Read ICHAIN            0

 POSCAR: FCC Cu
  positions in cartesian coordinates

 ion  position               nearest neighbor table
   1  0.000  0.000  0.000-   4 2.57   3 2.57   2 2.57   2 2.57   3 2.57   4 2.57   7 2.57   5 2.57
                             6 2.57
   2  0.000  0.500  0.000-   3 2.57   4 2.57   1 2.57   1 2.57   4 2.57   3 2.57   5 2.57   8 2.57
                             6 2.57
   3  0.500  0.000  0.000-   2 2.57   1 2.57   4 2.57   4 2.57   1 2.57   2 2.57   5 2.57   7 2.57
                             8 2.57
   4  0.500  0.500  0.000-   1 2.57   2 2.57   3 2.57   3 2.57   2 2.57   1 2.57   6 2.57   7 2.57
                             8 2.57
   5  0.167  0.167  0.082-   8 2.57   7 2.57   6 2.57   6 2.57   7 2.57   8 2.57   9 2.57   3 2.57
                             2 2.57   1 2.57  10 2.57  11 2.57
   6  0.167  0.667  0.082-   7 2.57   8 2.57   5 2.57   5 2.57   8 2.57   7 2.57  10 2.57   4 2.57
                             9 2.57   2 2.57   1 2.57  12 2.57
   7  0.667  0.167  0.082-   6 2.57   5 2.57   8 2.57   8 2.57   5 2.57   6 2.57  11 2.57   4 2.57
                             1 2.57   9 2.57   3 2.57  12 2.57
   8  0.667  0.667  0.082-   5 2.57   6 2.57   7 2.57   7 2.57   6 2.57   5 2.57  12 2.57  11 2.57
                             2 2.57  10 2.57   4 2.57   3 2.57
   9  0.333  0.333  0.165-  12 2.57  11 2.57  10 2.57  10 2.57  11 2.57  12 2.57   5 2.57  14 2.57
                             6 2.57  15 2.57   7 2.57  16 2.57
  10  0.333  0.833  0.165-  11 2.57  12 2.57   9 2.57   9 2.57  12 2.57  11 2.57   6 2.57  16 2.57
                            15 2.57   8 2.57  13 2.57   5 2.57
  11  0.833  0.333  0.165-  10 2.57   9 2.57  12 2.57  12 2.57   9 2.57  10 2.57   7 2.57  16 2.57
                             8 2.57  13 2.57   5 2.57  14 2.57
  12  0.833  0.833  0.165-   9 2.57  10 2.57  11 2.57  11 2.57  10 2.57   9 2.57   8 2.57  14 2.57
                            15 2.57   7 2.57  13 2.57   6 2.57
  13  0.000  0.000  0.247-  16 2.57  15 2.57  14 2.57  14 2.57  15 2.57  16 2.57  11 2.57  19 2.57
                            17 2.57  10 2.57  18 2.57  12 2.57
  14  0.000  0.500  0.247-  15 2.57  16 2.57  13 2.57  13 2.57  16 2.57  15 2.57   9 2.57  12 2.57
                            17 2.57  20 2.57  18 2.57  11 2.57
  15  0.500  0.000  0.247-  14 2.57  13 2.57  16 2.57  16 2.57  13 2.57  14 2.57  17 2.57   9 2.57
                            10 2.57  19 2.57  12 2.57  20 2.57
  16  0.500  0.500  0.247-  13 2.57  14 2.57  15 2.57  15 2.57  14 2.57  13 2.57  11 2.57  18 2.57
                            19 2.57  10 2.57  20 2.57   9 2.57
  17  0.167  0.167  0.329-  20 2.57  19 2.57  18 2.57  18 2.57  19 2.57  20 2.57  21 2.57  15 2.57
                            14 2.57  13 2.57  22 2.57  23 2.57
  18  0.167  0.667  0.329-  19 2.57  20 2.57  17 2.57  17 2.57  20 2.57  19 2.57  22 2.57  16 2.57
                            21 2.57  14 2.57  13 2.57  24 2.57
  19  0.667  0.167  0.329-  18 2.57  17 2.57  20 2.57  20 2.57  17 2.57  18 2.57  23 2.57  16 2.57
                            13 2.57  21 2.57  15 2.57  24 2.57
  20  0.667  0.667  0.329-  17 2.57  18 2.57  19 2.57  19 2.57  18 2.57  17 2.57  24 2.57  23 2.57
                            14 2.57  22 2.57  16 2.57  15 2.57
  21  0.333  0.333  0.411-  24 2.57  23 2.57  22 2.57  22 2.57  23 2.57  24 2.57  17 2.57  18 2.57
                            19 2.57
  22  0.333  0.833  0.411-  23 2.57  24 2.57  21 2.57  21 2.57  24 2.57  23 2.57  18 2.57  20 2.57
                            17 2.57
  23  0.833  0.333  0.411-  22 2.57  21 2.57  24 2.57  24 2.57  21 2.57  22 2.57  19 2.57  20 2.57
                            17 2.57
  24  0.833  0.833  0.411-  21 2.57  22 2.57  23 2.57  23 2.57  22 2.57  21 2.57  20 2.57  19 2.57
                            18 2.57

  LATTYP: Found a hexagonal cell.
 ALAT       =     5.1335954666
 C/A-ratio  =     4.9631702974

  Lattice vectors:

 A1 = (  -2.5667977333,  -4.4458240868,   0.0000000000)
 A2 = (   5.1335954666,   0.0000000000,   0.0000000000)
 A3 = (   0.0000000000,   0.0000000000,  25.4789085388)

Analysis of symmetry for initial positions (statically):
 Subroutine PRICEL returns following result:

[...]

   4 primitive cells build up your supercell.

 Routine SETGRP: Setting up the symmetry group for a
 hexagonal supercell.

 Subroutine GETGRP returns: Found 12 space group operations
 (whereof  6 operations were pure point group operations)
 out of a pool of 24 trial point group operations.

The static configuration has the point symmetry C_3v.
 The point group associated with its full space group is D_3d.

Analysis of symmetry for dynamics (positions and initial velocities):
 Subroutine PRICEL returns following result:

[...]

The dynamic configuration has the point symmetry C_3v.
 The point group associated with its full space group is D_3d.

Analysis of constrained symmetry for selective dynamics:
 Subroutine PRICEL returns following result:

[...]

The constrained configuration has the point symmetry C_3v.

Analysis of structural, dynamic, and magnetic symmetry:
 Subroutine PRICEL returns following result:

  LATTYP: Found a hexagonal cell.
 ALAT       =     2.5667977331
 C/A-ratio  =     9.9263405956

  Lattice vectors:

 A1 = (  -1.2833988670,  -2.2229120430,   0.0000000000)
 A2 = (   2.5667977330,   0.0000000000,   0.0000000000)
 A3 = (   0.0000000000,   0.0000000000,  25.4789085388)

   4 primitive cells build up your supercell.

 Routine SETGRP: Setting up the symmetry group for a
 hexagonal supercell.

 Subroutine GETGRP returns: Found  6 space group operations
 (whereof  6 operations were pure point group operations)
 out of a pool of 24 trial point group operations.

The overall configuration has the point symmetry C_3v.

 Subroutine INISYM returns: Found  6 space group operations
 (whereof  6 operations are pure point group operations),
 and found     4 'primitive' translations

                                     Primitive cell

  volume of cell :     145.3767

  direct lattice vectors                    reciprocal lattice vectors
    -1.283398867 -2.222912043  0.000000000     0.000000000 -0.449860355  0.000000000
     2.566797733  0.000000000  0.000000000     0.389590495 -0.224930177  0.000000000
     0.000000000  0.000000000 25.478908539     0.000000000  0.000000000  0.039248149

  length of vectors
     2.566797733  2.566797733 25.478908539     0.449860355  0.449860355  0.039248149

  position of ions in fractional coordinates (direct lattice)
     0.000000000  0.000000000  0.000000000
     0.666666667  0.333333333  0.082255549
     0.333333333  0.666666667  0.164511098
     0.000000000  0.000000000  0.246766647
     0.666666667  0.333333333  0.329022196
     0.333333333  0.666666667  0.411277745

  ion indices of the primitive-cell ions
   primitive index   ion index
                 1           1
                 2           5
                 3          12
                 4          13
                 5          17
                 6          24

 KPOINTS: Auto-mesh

Automatic generation of k-mesh.
 Grid dimensions read from file:
 generate k-points for:    3    3    1

 Generating k-lattice:

  Cartesian coordinates                     Fractional coordinates (reciprocal lattice)
     0.064931749 -0.037488363  0.000000000     0.333333333  0.000000000  0.000000000
     0.000000000  0.074976726  0.000000000     0.000000000  0.333333333  0.000000000
     0.000000000  0.000000000  0.039248149     0.000000000  0.000000000  1.000000000

  Length of vectors
     0.074976726  0.074976726  0.039248149

  Shift w.r.t. Gamma in fractional coordinates (k-lattice)
     0.000000000  0.000000000  0.000000000

 Subroutine IBZKPT returns following result:

 Found      3 irreducible k-points:

 Following reciprocal coordinates:
            Coordinates               Weight
  0.000000  0.000000  0.000000      1.000000
  0.333333 -0.000000  0.000000      6.000000
 -0.333333  0.333333  0.000000      2.000000

 Following cartesian coordinates:
            Coordinates               Weight
  0.000000  0.000000  0.000000      1.000000
  0.064932 -0.037488  0.000000      6.000000
 -0.064932  0.112465  0.000000      2.000000

 SYSTEM =  unknown system
 POSCAR =  FCC Cu

 Startparameter for this run:
   NWRITE =      2    write-flag & timer
   PREC   = normal    normal or accurate (medium, high low for compatibility)
   ISTART =      0    job   : 0-new  1-cont  2-samecut
   ICHARG =      2    charge: 1-file 2-atom 10-const
   ISPIN  =      2    spin polarized calculation?
   LNONCOLLINEAR =      F non collinear calculations
   LSORBIT =      F    spin-orbit coupling
   INIWAV =      1    electr: 0-lowe 1-rand  2-diag
   LASPH  =      F    aspherical Exc in radial PAW
 Electronic Relaxation 1
   ENCUT  =  400.0 eV  29.40 Ry    5.42 a.u.   8.37  8.37 41.55*2*pi/ulx,y,z
   ENINI  =  400.0     initial cutoff
   ENAUG  =  587.0 eV  augmentation charge cutoff
   NELM   =     60;   NELMIN=  2; NELMDL= -5     # of ELM steps
   EDIFF  = 0.2E-03   stopping-criterion for ELM
   LREAL  =      F    real-space projection
   NLSPLINE    = F    spline interpolate recip. space projectors
[...]
 trial     =   2.28545
 opt step  =   1.73258  (harmonic =   1.94071) maximal distance =0.00112172
 next E    =   -94.881201   (d E  =  -0.00300)

[...]

 eigenvalues of (default mixing * dielectric matrix)
  average eigenvalue GAMMA=   0.5132
  0.8955  0.1308

[...]

 d Force = 0.1637166E-04[-0.145E-03, 0.177E-03]  d Energy =-0.1592711E-03 0.176E-03
 d Force =-0.2830108E+02[-0.283E+02,-0.283E+02]  d Ewald  =-0.2830108E+02-0.908E-07

[...]

 d Force = 0.8034290E-05[-0.489E-04, 0.650E-04]  d Energy = 0.4613627E-04-0.381E-04
 d Force = 0.1271341E+02[ 0.127E+02, 0.127E+02]  d Ewald  = 0.1271341E+02 0.669E-08

[...]

 eigenvalue-minimisations  :  3064
 total energy-change (2. order) : 0.1184787E-03  (-0.5766664E-03)
 number of electron     263.9999941 magnetization      -0.0000009
 augmentation part      168.3283590 magnetization      -0.0000007

 Broyden mixing:
  rms(total) = 0.95937E-03    rms(broyden)= 0.95613E-03
  rms(prec ) = 0.10818E-02
  weight for this iteration     100.00

[...]

--------------------------------------- Iteration     18(   2)  ---------------------------------------

 eigenvalue-minimisations  :  1072
 total energy-change (2. order) :-0.5444279E-05  (-0.6324103E-05)
 number of electron     263.9999941 magnetization      -0.0000009
 augmentation part      168.3283590 magnetization      -0.0000007

 Free energy of the ion-electron system (eV)
  alpha Z        PSCENC =       724.40254881
  Ewald energy   TEWEN  =    136703.48580430
  -Hartree energ DENC   =   -168958.76397378
  -exchange      EXHF   =         0.00000000
  -V(xc)+E(xc)   XCENC  =      1070.32457487
  PAW double counting   =     31500.80623442   -34088.14624198
  entropy T*S    EENTRO =        -0.02484798
  eigenvalues    EBANDS =      -420.24315697
  atomic energy  EATOM  =     33382.98336479
  Solvation  Ediel_sol  =         0.00000000
  free energy    TOTEN  =       -85.17569350 eV

  energy without entropy =      -85.15084552  energy(sigma->0) =      -85.16741084

 average (electrostatic) potential at core
  the test charge radii are     0.9430
  (the norm of the test charge is              1.0000)
       1 -69.7735       2 -69.7735       3 -69.7735       4 -69.7735       5 -69.8905
       6 -69.8905       7 -69.8905       8 -69.8905       9 -69.9250      10 -69.9250
      11 -69.9250      12 -69.9250      13 -69.9226      14 -69.9226      15 -69.9226
      16 -69.9226      17 -69.9040      18 -69.9040      19 -69.9040      20 -69.9040
      21 -69.7890      22 -69.7890      23 -69.7890      24 -69.7890

 E-fermi :   1.3538     XC(G=0):  -6.8991     alpha+bet : -6.5434

 Fermi energy:         1.3538178137

[...]

 k-point     3 :      -0.3333    0.3333    0.0000
  band No.  band energies     occupation
      1      -5.4106      1.00000
      2      -5.4106      1.00000
      3      -5.4106      1.00000
      4      -4.8512      1.00000
      5      -4.8512      1.00000
      6      -4.8512      1.00000
      7      -4.0664      1.00000
      8      -4.0664      1.00000
      9      -4.0664      1.00000
     10      -3.2853      1.00000
     11      -3.2853      1.00000
     12      -3.2853      1.00000
     13      -2.7815      1.00000
     14      -2.7815      1.00000
     15      -2.7815      1.00000
     16      -2.7364      1.00000
     17      -2.7360      1.00000
     18      -2.7176      1.00000
     19      -2.6222      1.00000
     20      -2.6130      1.00000
     21      -2.6095      1.00000
     22      -2.6095      1.00000
     23      -2.6095      1.00000
     24      -2.6081      1.00000
     25      -2.5819      1.00000
     26      -2.5235      1.00000
     27      -2.4555      1.00000
     28      -2.4555      1.00000
     29      -2.4555      1.00000
     30      -2.4421      1.00000
     31      -2.3802      1.00000
     32      -2.3802      1.00000
     33      -2.3802      1.00000
     34      -2.3051      1.00000
     35      -2.2394      1.00000
     36      -2.2270      1.00000
     37      -2.2270      1.00000
     38      -2.2270      1.00000
     39      -2.1590      1.00000
     40      -2.1590      1.00000
     41      -2.1590      1.00000
     42      -2.1025      1.00000
     43      -2.1025      1.00000
     44      -2.1025      1.00000
     45      -2.0079      1.00000
     46      -2.0079      1.00000
     47      -2.0079      1.00000
     48      -1.8878      1.00000
     49      -1.8812      1.00000
     50      -1.8775      1.00000
     51      -1.8548      1.00000
     52      -1.8548      1.00000
     53      -1.8548      1.00000
     54      -1.8194      1.00000
     55      -1.8194      1.00000
     56      -1.8194      1.00000
     57      -1.7841      1.00000
     58      -1.7326      1.00000
     59      -1.7326      1.00000
     60      -1.7326      1.00000
[...]
    158       8.1058      0.00000
    159       8.1058      0.00000
    160       9.0700      0.00000
    161       9.0891      0.00000
    162       9.1737      0.00000
    163       9.1737      0.00000
    164       9.1737      0.00000
    165       9.2268      0.00000
    166       9.2268      0.00000
    167       9.2268      0.00000
    168      10.3353      0.00000
    169      11.1602      0.00000
    170      11.1602      0.00000
    171      11.1602      0.00000
    172      11.3182      0.00000
 Fermi energy:         1.3538178137

 spin component 2

[...]

 k-point     3 :      -0.3333    0.3333    0.0000
  band No.  band energies     occupation
      1      -5.4106      1.00000
      2      -5.4106      1.00000
      3      -5.4106      1.00000
      4      -4.8512      1.00000
      5      -4.8512      1.00000
      6      -4.8512      1.00000
      7      -4.0664      1.00000
      8      -4.0664      1.00000
      9      -4.0664      1.00000
     10      -3.2853      1.00000
     11      -3.2853      1.00000
     12      -3.2853      1.00000
     13      -2.7815      1.00000
     14      -2.7815      1.00000
     15      -2.7815      1.00000
     16      -2.7364      1.00000
     17      -2.7360      1.00000
     18      -2.7176      1.00000
     19      -2.6222      1.00000
     20      -2.6130      1.00000
     21      -2.6095      1.00000
     22      -2.6095      1.00000
     23      -2.6095      1.00000
     24      -2.6081      1.00000
     25      -2.5819      1.00000
     26      -2.5235      1.00000
     27      -2.4555      1.00000
     28      -2.4555      1.00000
     29      -2.4555      1.00000
     30      -2.4421      1.00000
     31      -2.3802      1.00000
     32      -2.3802      1.00000
     33      -2.3802      1.00000
     34      -2.3051      1.00000
     35      -2.2394      1.00000
     36      -2.2270      1.00000
     37      -2.2270      1.00000
     38      -2.2270      1.00000
     39      -2.1590      1.00000
     40      -2.1590      1.00000
     41      -2.1590      1.00000
     42      -2.1025      1.00000
     43      -2.1025      1.00000
     44      -2.1025      1.00000
     45      -2.0079      1.00000
     46      -2.0079      1.00000
     47      -2.0079      1.00000
     48      -1.8878      1.00000
     49      -1.8812      1.00000
     50      -1.8775      1.00000
     51      -1.8548      1.00000
     52      -1.8548      1.00000
     53      -1.8548      1.00000
     54      -1.8194      1.00000
     55      -1.8194      1.00000
     56      -1.8194      1.00000
     57      -1.7841      1.00000
     58      -1.7326      1.00000
     59      -1.7326      1.00000
     60      -1.7326      1.00000
[...]
    158       8.1057      0.00000
    159       8.1057      0.00000
    160       9.0700      0.00000
    161       9.0891      0.00000
    162       9.1736      0.00000
    163       9.1736      0.00000
    164       9.1736      0.00000
    165       9.2267      0.00000
    166       9.2267      0.00000
    167       9.2267      0.00000
    168      10.3353      0.00000
    169      11.1601      0.00000
    170      11.1601      0.00000
    171      11.2473      0.00000
    172      11.3727      0.00000

[...]

 soft charge-density along one line, spin component           2
         0         1         2         3         4         5         6         7         8         9
 total charge-density along one line

------------------------ aborting loop because EDIFF is reached ----------------------------------------

 DIPCOR: dipole corrections for dipol
 direction  3 min pos   168,
 dipolmoment           0.000000      0.000000     -0.002113 electrons x Angstroem
 Tr[quadrupol]     -1220.627910

 energy correction for charged system         0.000000 eV
 dipol+quadrupol energy correction            0.000001 eV
 added-field ion interaction          0.000000 eV  (added to PSCEN)

  *************** adding dipol energy to TOTEN NOW ****************

         DFTD3 V3.0 Rev 1
 Edisp (eV)   -9.70547

 E6    (eV) :    -3.9578
 E8    (eV) :    -5.7476
 % E8        : 59.22

  FORCE on cell =-STRESS in cart. coord.  units (eV):
  Direction    XX          YY          ZZ          XY          YZ          ZX
  Alpha Z   724.40255   724.40255   724.40255
  Ewald  154288.67321154288.67321************     0.00000     0.00000     0.00000
  Hartree163479.66855163479.66855************     0.00000    -0.00000    -0.00000
  E(xc)   -1542.59525 -1542.59483 -1544.53332    -0.00036     0.00001     0.00001
  Local  ************************326781.96959     0.01201    -0.00000    -0.00001
  n-local  -504.08494  -517.18365  -514.57282   -11.34215     0.43081    -0.73371
  augment  2272.75769  2272.77091  2274.80020    -0.01145     0.00000     0.00000
  Kinetic  2148.40471  2159.35033  2159.95825     9.47996    -2.18912     3.79187
  Fock        0.00000     0.00000     0.00000     0.00000     0.00000     0.00000
  vdW       -11.84869   -11.84869    -9.17538    -0.00000     0.00000     0.00000
  Total     -11.21956   -11.21956    -4.52452    -0.00000     0.00000     0.00000
  in kB     -30.91231   -30.91231   -12.46603    -0.00000     0.00000     0.00000

 VOLUME and BASIS-vectors are now :
  energy-cutoff  :      400.00
  volume of cell :      581.51
      direct lattice vectors                 reciprocal lattice vectors
     5.133595467  0.000000000  0.000000000     0.194795248 -0.112465089  0.000000000
     2.566797733  4.445824087  0.000000000     0.000000000  0.224930177  0.000000000
     0.000000000  0.000000000 25.478908539     0.000000000  0.000000000  0.039248149

  length of vectors
     5.133595467  5.133595467 25.478908539     0.224930177  0.224930177  0.039248149

 FORCES acting on ions
    electron-ion (+dipol)            ewald-force                    non-local-force                 convergence-correction
   -.390E-05 -.225E-05 0.496E+04   -.127E-06 -.190E-06 -.496E+04   0.104E-16 0.694E-17 -.214E+01   0.775E-10 0.449E-10 0.611E-01
   -.523E-05 -.725E-06 0.496E+04   -.167E-06 0.344E-06 -.496E+04   -.104E-16 -.694E-17 -.214E+01   0.645E-10 0.613E-10 0.611E-01
   -.275E-05 -.225E-05 0.496E+04   0.182E-06 -.349E-06 -.496E+04   -.173E-17 0.694E-17 -.214E+01   0.908E-10 0.451E-10 0.611E-01
   -.409E-05 -.725E-06 0.496E+04   0.142E-06 0.185E-06 -.496E+04   0.173E-17 -.208E-16 -.214E+01   0.749E-10 0.603E-10 0.611E-01
   0.140E-05 0.207E-05 0.303E+04   -.187E-06 -.213E-06 -.302E+04   0.781E-17 0.173E-17 -.162E+01   0.406E-08 0.237E-08 -.468E-01
   0.779E-07 0.358E-05 0.303E+04   -.214E-06 0.402E-06 -.302E+04   0.434E-18 0.173E-17 -.162E+01   0.403E-08 0.239E-08 -.468E-01
   0.253E-05 0.207E-05 0.303E+04   0.165E-06 -.404E-06 -.302E+04   0.867E-18 0.347E-17 -.162E+01   0.408E-08 0.236E-08 -.468E-01
   0.121E-05 0.358E-05 0.303E+04   0.138E-06 0.212E-06 -.302E+04   0.130E-17 0.347E-17 -.162E+01   0.406E-08 0.239E-08 -.468E-01
   -.448E-05 -.223E-05 0.101E+04   -.878E-07 -.170E-06 -.101E+04   -.304E-17 0.217E-18 0.457E+00   0.101E-06 0.581E-07 -.150E+00
   -.580E-05 -.729E-06 0.101E+04   -.156E-06 0.326E-06 -.101E+04   -.390E-17 0.217E-18 0.457E+00   0.101E-06 0.582E-07 -.150E+00
   -.335E-05 -.223E-05 0.101E+04   0.206E-06 -.305E-06 -.101E+04   -.173E-17 0.651E-18 0.457E+00   0.101E-06 0.581E-07 -.150E+00
   -.467E-05 -.729E-06 0.101E+04   0.137E-06 0.190E-06 -.101E+04   -.282E-17 0.108E-17 0.457E+00   0.101E-06 0.582E-07 -.150E+00
   0.286E-06 0.165E-06 -.996E+03   -.111E-06 -.190E-06 0.996E+03   -.173E-17 0.434E-18 -.428E+00   0.155E-06 0.895E-07 -.245E+00
   -.103E-05 0.167E-05 -.996E+03   -.179E-06 0.305E-06 0.996E+03   0.108E-17 0.434E-18 -.428E+00   0.155E-06 0.895E-07 -.245E+00
   0.141E-05 0.165E-06 -.996E+03   0.182E-06 -.325E-06 0.996E+03   0.000E+00 0.867E-18 -.428E+00   0.155E-06 0.895E-07 -.245E+00
   0.977E-07 0.167E-05 -.996E+03   0.114E-06 0.170E-06 0.996E+03   0.651E-18 0.434E-18 -.428E+00   0.155E-06 0.895E-07 -.245E+00
   0.384E-05 0.348E-05 -.301E+04   -.189E-06 -.214E-06 0.301E+04   -.434E-17 0.260E-17 0.139E+01   -.675E-08 -.392E-08 -.257E+00
   0.252E-05 0.499E-05 -.301E+04   -.215E-06 0.406E-06 0.301E+04   -.260E-17 0.260E-17 0.139E+01   -.673E-08 -.394E-08 -.257E+00
   0.497E-05 0.348E-05 -.301E+04   0.165E-06 -.405E-06 0.301E+04   -.607E-17 0.260E-17 0.139E+01   -.677E-08 -.392E-08 -.257E+00
   0.365E-05 0.499E-05 -.301E+04   0.140E-06 0.214E-06 0.301E+04   -.737E-17 0.434E-17 0.139E+01   -.675E-08 -.393E-08 -.257E+00
   -.790E-05 -.420E-05 -.498E+04   -.121E-06 -.186E-06 0.498E+04   0.295E-16 0.347E-17 0.234E+01   0.651E-07 0.376E-07 -.366E-01
   -.923E-05 -.268E-05 -.498E+04   -.160E-06 0.352E-06 0.498E+04   -.104E-16 0.347E-17 0.234E+01   0.652E-07 0.375E-07 -.366E-01
   -.676E-05 -.420E-05 -.498E+04   0.191E-06 -.347E-06 0.498E+04   0.139E-16 -.139E-16 0.234E+01   0.650E-07 0.376E-07 -.366E-01
   -.809E-05 -.268E-05 -.498E+04   0.152E-06 0.192E-06 0.498E+04   0.867E-17 -.139E-16 0.234E+01   0.651E-07 0.375E-07 -.366E-01
   -.453E-04 0.627E-05 0.288E+01   -.183E-12 -.141E-13 0.000E+00   0.202E-16 -.781E-17 0.130E-01   0.127E-05 0.735E-06 -.270E+01

 POSITION                                       TOTAL-FORCE (eV/Angst)
      0.00000      0.00000      0.00000        -0.000000      0.000000      0.185354
      1.28340      2.22291      0.00000        -0.000000     -0.000000      0.185354
      2.56680      0.00000      0.00000         0.000000     -0.000000      0.185354
      3.85020      2.22291      0.00000         0.000000     -0.000000      0.185354
      1.28340      0.74097      2.09578        -0.000000      0.000000     -0.166641
      2.56680      2.96388      2.09578        -0.000000     -0.000000     -0.166641
      3.85020      0.74097      2.09578        -0.000000      0.000000     -0.166641
      5.13360      2.96388      2.09578         0.000000     -0.000000     -0.166641
      2.56680      1.48194      4.10295        -0.000000     -0.000000      0.024828
      3.85020      3.70485      4.10295        -0.000000     -0.000000      0.024828
      5.13360      1.48194      4.10295         0.000000     -0.000000      0.024828
      6.41699      3.70485      4.10295        -0.000000     -0.000000      0.024828
     -0.00000     -0.00000      6.13515         0.000000     -0.000000      0.009497
      1.28340      2.22291      6.13515         0.000000     -0.000000      0.009497
      2.56680     -0.00000      6.13515        -0.000000     -0.000000      0.009497
      3.85020      2.22291      6.13515         0.000000     -0.000000      0.009497
      1.28340      0.74097      8.14883        -0.000000     -0.000000     -0.027486
      2.56680      2.96388      8.14883         0.000000     -0.000000     -0.027486
      3.85020      0.74097      8.14883        -0.000000      0.000000     -0.027486
      5.13360      2.96388      8.14883        -0.000000      0.000000     -0.027486
      2.56680      1.48194     10.19830         0.000000      0.000000     -0.025553
      3.85020      3.70485     10.19830         0.000000      0.000000     -0.025553
      5.13360      1.48194     10.19830         0.000000      0.000000     -0.025553
      6.41699      3.70485     10.19830         0.000000      0.000000     -0.025553
    total drift:                               -0.000044      0.000007      0.195780

  FREE ENERGIE OF THE ION-ELECTRON SYSTEM (eV)
  free  energy   TOTEN  =       -94.88115872 eV

  energy  without entropy=      -94.85631074  energy(sigma->0) =      -94.87287606

 d Force = 0.4979449E-05[-0.110E-04, 0.210E-04]  d Energy =-0.1224062E-04 0.172E-04
 d Force =-0.5459623E+01[-0.546E+01,-0.546E+01]  d Ewald  =-0.5459623E+01-0.291E-10

 stress matrix after NEB project (eV)
    -11.21956     -0.00000      0.00000
     -0.00000    -11.21956      0.00000
      0.00000      0.00000     -4.52452
  FORCES: max atom, RMS     0.027486    0.018775
  FORCE total and by dimension    0.091980    0.027486
  Stress total and by dimension   16.499338   11.219556

 reached required accuracy - stopping structural energy minimisation