 vasp.6.3.2 27Jun22 (build Aug 17 2022 15:43:34) complex

 executed on           tv2STDVTST date 2025.01.21  12:59:57

 INCAR:
   ISTART = 0
   ICHARG = 2
   IPIPOL = 3
   IVDW = 11
   IDIPOL = 3
   IVDW = 11
   ISPIN = 2
   ENCUT = 400
   PREC = Normal
   EDIFF = 2E-04
   GGA = PE
   ISMEAR = 1
   SIGMA = 0.2
   LREAL = .FALSE.
   ISYM = 1
   NSW = 800
   IBRION = 2
   POTIM = 0.5
   ISIF = 2
   EDIFFG = -.03
   NPAR = 4
   LWAVE = .FALSE.
   LCHARG = .FALSE.

 POTCAR:    PAW_PBE Cu 22Jun2005
|           W    W    AA    RRRRR   N    N  II  N    N   GGGG   !!!           |
|           W    W   A  A   R    R  NN   N  II  NN   N  G    G  !!!           |
|           W    W  A    A  R    R  N N  N  II  N N  N  G       !!!           |
|           W WW W  AAAAAA  RRRRR   N  N N  II  N  N N  G  GGG   !            |
|           WW  WW  A    A  R   R   N   NN  II  N   NN  G    G                |
|           W    W  A    A  R    R  N    N  II  N    N   GGGG   !!!           |
|     You use a magnetic or noncollinear calculation, but did not specify     |
|     the initial magnetic moment with the MAGMOM tag. Note that a            |
|     default of 1 will be used for all atoms. This ferromagnetic setup       |
|     may break the symmetry of the crystal, in particular it may rule        |
|     out finding an antiferromagnetic solution. Thence, we recommend         |
|     setting the initial magnetic moment manually or verifying carefully     |
|     that this magnetic setup is desired.                                    |

   TITEL  = PAW_PBE Cu 22Jun2005
   POMASS =   63.546; ZVAL   =   11.000    mass and valenz
   ENMAX  =  295.446; ENMIN  =  221.585 eV

  PAW_PBE Cu 22Jun2005                  :

 POSCAR: FCC Cu
  positions in cartesian coordinates
  velocities in cartesian coordinates
 exchange correlation table for  LEXCH =        8
   RHO(1)=    0.500       N(1)  =     2000
   RHO(2)=  100.500       N(2)  =     4000

 VTST: version 4.2, (08/11/21)

 CHAIN: initializing optimizer

 OPT: Using VASP Conjugate-Gradient optimizer
 CHAIN: Read ICHAIN            0

 POSCAR: FCC Cu
  positions in cartesian coordinates
  velocities in cartesian coordinates

 ion  position               nearest neighbor table
   1  0.000  0.000  0.000-   9 2.57  13 2.57  10 2.57  15 2.57   5 2.57   6 2.57   7 2.57   8 2.57

   2  0.000  0.500  0.000-  10 2.57  14 2.57   9 2.57  16 2.57   6 2.57   5 2.57   8 2.57   7 2.57

[...]

   9  0.000  0.250  0.075-  17 2.57  21 2.57  18 2.57  23 2.57   1 2.57   5 2.57   2 2.57   7 2.57
                            13 2.57  14 2.57  15 2.57  16 2.57
  10  0.000  0.750  0.075-  18 2.57  22 2.57  17 2.57  24 2.57   2 2.57   6 2.57   1 2.57   8 2.57
                            14 2.57  13 2.57  16 2.57  15 2.57
  11  0.500  0.250  0.075-  19 2.57  23 2.57  21 2.57  20 2.57   3 2.57   7 2.57   5 2.57   4 2.57
                            15 2.57  13 2.57  16 2.57  14 2.57
  12  0.500  0.750  0.075-  20 2.57  24 2.57  22 2.57  19 2.57   4 2.57   8 2.57   6 2.57   3 2.57
                            16 2.57  14 2.57  15 2.57  13 2.57
  13  0.250  0.000  0.075-  17 2.57  21 2.57  19 2.57  22 2.57   1 2.57   5 2.57   3 2.57   6 2.57
                             9 2.57  11 2.57  10 2.57  12 2.57
  14  0.250  0.500  0.075-  18 2.57  22 2.57  21 2.57  20 2.57   2 2.57   6 2.57   5 2.57   4 2.57
                            10 2.57   9 2.57  12 2.57  11 2.57
  15  0.750  0.000  0.075-  19 2.57  23 2.57  17 2.57  24 2.57   3 2.57   7 2.57   1 2.57   8 2.57
                            11 2.57   9 2.57  12 2.57  10 2.57
  16  0.750  0.500  0.075-  20 2.57  24 2.57  23 2.57  18 2.57   4 2.57   8 2.57   7 2.57   2 2.57
                            12 2.57  11 2.57  10 2.57   9 2.57
  17  0.000  0.000  0.151-   9 2.57  13 2.57  10 2.57  15 2.57  25 2.57  29 2.57  26 2.57  31 2.57
                            21 2.57  22 2.57  23 2.57  24 2.57
  18  0.000  0.500  0.151-  10 2.57  14 2.57   9 2.57  16 2.57  26 2.57  30 2.57  25 2.57  32 2.57
                            22 2.57  21 2.57  24 2.57  23 2.57
  19  0.500  0.000  0.151-  11 2.57  15 2.57  13 2.57  12 2.57  27 2.57  31 2.57  29 2.57  28 2.57
                            23 2.57  21 2.57  24 2.57  22 2.57
  20  0.500  0.500  0.151-  12 2.57  16 2.57  14 2.57  11 2.57  28 2.57  32 2.57  30 2.57  27 2.57
                            24 2.57  23 2.57  22 2.57  21 2.57
  21  0.250  0.250  0.151-   9 2.57  13 2.57  11 2.57  14 2.57  25 2.57  29 2.57  27 2.57  30 2.57
                            17 2.57  18 2.57  19 2.57  20 2.57
  22  0.250  0.750  0.151-  10 2.57  14 2.57  12 2.57  13 2.57  26 2.57  30 2.57  28 2.57  29 2.57
                            18 2.57  20 2.57  17 2.57  19 2.57
  23  0.750  0.250  0.151-  11 2.57  15 2.57  16 2.57   9 2.57  27 2.57  31 2.57  32 2.57  25 2.57
                            19 2.57  20 2.57  17 2.57  18 2.57
  24  0.750  0.750  0.151-  12 2.57  16 2.57  15 2.57  10 2.57  28 2.57  32 2.57  31 2.57  26 2.57
                            20 2.57  19 2.57  18 2.57  17 2.57
  25  0.000  0.250  0.226-  33 2.57  37 2.57  34 2.57  39 2.57  17 2.57  21 2.57  18 2.57  23 2.57
                            29 2.57  30 2.57  31 2.57  32 2.57
  26  0.000  0.750  0.226-  34 2.57  38 2.57  33 2.57  40 2.57  18 2.57  22 2.57  17 2.57  24 2.57
                            30 2.57  29 2.57  32 2.57  31 2.57
  27  0.500  0.250  0.226-  35 2.57  39 2.57  37 2.57  36 2.57  19 2.57  23 2.57  21 2.57  20 2.57
                            31 2.57  29 2.57  32 2.57  30 2.57
  28  0.500  0.750  0.226-  36 2.57  40 2.57  38 2.57  35 2.57  20 2.57  24 2.57  22 2.57  19 2.57
                            32 2.57  30 2.57  31 2.57  29 2.57
  29  0.250  0.000  0.226-  33 2.57  37 2.57  35 2.57  38 2.57  17 2.57  21 2.57  19 2.57  22 2.57
                            25 2.57  27 2.57  26 2.57  28 2.57
  30  0.250  0.500  0.226-  34 2.57  38 2.57  37 2.57  36 2.57  18 2.57  22 2.57  21 2.57  20 2.57
                            26 2.57  25 2.57  28 2.57  27 2.57
  31  0.750  0.000  0.226-  35 2.57  39 2.57  33 2.57  40 2.57  19 2.57  23 2.57  17 2.57  24 2.57
                            27 2.57  25 2.57  28 2.57  26 2.57
  32  0.750  0.500  0.226-  36 2.57  40 2.57  39 2.57  34 2.57  20 2.57  24 2.57  23 2.57  18 2.57
                            28 2.57  27 2.57  26 2.57  25 2.57
  33  0.000  0.000  0.302-  25 2.57  29 2.57  41 2.57  45 2.57  26 2.57  31 2.57  42 2.57  47 2.57
                            37 2.57  38 2.57  39 2.57  40 2.57
  34  0.000  0.500  0.302-  26 2.57  30 2.57  25 2.57  42 2.57  46 2.57  41 2.57  32 2.57  48 2.57
                            38 2.57  37 2.57  40 2.57  39 2.57
  35  0.500  0.000  0.302-  27 2.57  31 2.57  29 2.57  43 2.57  47 2.57  45 2.57  28 2.57  44 2.57
                            39 2.57  37 2.57  40 2.57  38 2.57
  36  0.500  0.500  0.302-  28 2.57  32 2.57  30 2.57  27 2.57  44 2.57  48 2.57  46 2.57  43 2.57
                            40 2.57  39 2.57  38 2.57  37 2.57
  37  0.250  0.250  0.302-  25 2.57  29 2.57  27 2.57  30 2.57  41 2.57  45 2.57  43 2.57  46 2.57
                            33 2.57  34 2.57  35 2.57  36 2.57
  38  0.250  0.750  0.302-  26 2.57  30 2.57  28 2.57  42 2.57  46 2.57  44 2.57  29 2.57  45 2.57
                            34 2.57  36 2.57  33 2.57  35 2.57
  39  0.750  0.250  0.302-  27 2.57  31 2.57  32 2.57  43 2.57  47 2.57  48 2.57  25 2.57  41 2.57
                            35 2.57  36 2.57  33 2.57  34 2.57
  40  0.750  0.750  0.302-  28 2.57  32 2.57  44 2.57  48 2.57  31 2.57  26 2.57  47 2.57  42 2.57
                            36 2.57  35 2.57  34 2.57  33 2.57
  41  0.000  0.250  0.377-  33 2.57  37 2.57  34 2.57  39 2.57  45 2.57  46 2.57  47 2.57  48 2.57

[...]

  48  0.750  0.500  0.377-  36 2.57  40 2.57  39 2.57  34 2.57  44 2.57  43 2.57  42 2.57  41 2.57

  LATTYP: Found a simple tetragonal cell.
 ALAT       =     7.2600002289
 C/A-ratio  =     3.3161155979

  Lattice vectors:

 A1 = (   7.2600002289,   0.0000000000,   0.0000000000)
 A2 = (   0.0000000000,   7.2600002289,   0.0000000000)
 A3 = (   0.0000000000,   0.0000000000,  24.0750000000)

Analysis of symmetry for initial positions (statically):
 Subroutine PRICEL returns following result:

[...]

   8 primitive cells build up your supercell.

 Routine SETGRP: Setting up the symmetry group for a
 simple tetragonal supercell.

 Subroutine GETGRP returns: Found 16 space group operations
 (whereof  8 operations were pure point group operations)
 out of a pool of 16 trial point group operations.

The static configuration has the point symmetry C_4v.
 The point group associated with its full space group is D_4h.

Analysis of symmetry for dynamics (positions and initial velocities):
 Subroutine PRICEL returns following result:

[...]

The dynamic configuration has the point symmetry C_4v.
 The point group associated with its full space group is D_4h.

Analysis of constrained symmetry for selective dynamics:
 Subroutine PRICEL returns following result:

[...]

The constrained configuration has the point symmetry C_4v.

Analysis of structural, dynamic, and magnetic symmetry:
 Subroutine PRICEL returns following result:

  LATTYP: Found a simple tetragonal cell.
 ALAT       =     2.5667976963
 C/A-ratio  =     9.3793913071

  Lattice vectors:

 A1 = (   1.8150000570,  -1.8150000570,   0.0000000000)
 A2 = (   1.8150000570,   1.8150000570,   0.0000000000)
 A3 = (   0.0000000000,   0.0000000000,  24.0750000000)

   8 primitive cells build up your supercell.

 Routine SETGRP: Setting up the symmetry group for a
 simple tetragonal supercell.

 Subroutine GETGRP returns: Found  8 space group operations
 (whereof  8 operations were pure point group operations)
 out of a pool of 16 trial point group operations.

The overall configuration has the point symmetry C_4v.

 Subroutine INISYM returns: Found  8 space group operations
 (whereof  8 operations are pure point group operations),
 and found     8 'primitive' translations

                                     Primitive cell

  volume of cell :     158.6169

  direct lattice vectors                    reciprocal lattice vectors
     1.815000057 -1.815000057  0.000000000     0.275482085 -0.275482085  0.000000000
     1.815000057  1.815000057  0.000000000     0.275482085  0.275482085  0.000000000
     0.000000000  0.000000000 24.075000000     0.000000000  0.000000000  0.041536864

  length of vectors
     2.566797696  2.566797696 24.075000000     0.389590501  0.389590501  0.041536864

  position of ions in fractional coordinates (direct lattice)
     0.000000000  0.000000000  0.000000000
     0.500000000  0.500000000  0.075389409
     0.000000000  0.000000000  0.150778818
     0.500000000  0.500000000  0.226168228
     0.000000000  0.000000000  0.301557637
     0.500000000  0.500000000  0.376947046

  ion indices of the primitive-cell ions
   primitive index   ion index
                 1           1
                 2           9
                 3          17
                 4          25
                 5          33
                 6          41

 KPOINTS: Auto-mesh

Automatic generation of k-mesh.
 Grid dimensions read from file:
[...]
    337       9.2611      0.00000
    338       9.3985      0.00000
    339       9.3985      0.00000
    340       9.6066      0.00000
 Fermi energy:         1.0794562273

 spin component 2

[...]

 k-point     3 :       0.3333    0.3333    0.0000
  band No.  band energies     occupation
      1      -7.5946      1.00000
      2      -6.6838      1.00000
      3      -6.6649      1.00000
      4      -6.6649      1.00000
      5      -5.8232      1.00000
      6      -5.8226      1.00000
      7      -5.8226      1.00000
      8      -5.4030      1.00000
      9      -5.1323      1.00000
     10      -4.7044      1.00000
     11      -4.7044      1.00000
     12      -4.3435      1.00000
     13      -4.1364      1.00000
     14      -4.0981      1.00000
     15      -4.0981      1.00000
     16      -3.8152      1.00000
     17      -3.8044      1.00000
     18      -3.7697      1.00000
     19      -3.7441      1.00000
     20      -3.7190      1.00000
     21      -3.7190      1.00000
     22      -3.7121      1.00000
     23      -3.6962      1.00000
     24      -3.6621      1.00000
     25      -3.6621      1.00000
     26      -3.6103      1.00000
     27      -3.5840      1.00000
     28      -3.4765      1.00000
     29      -3.4095      1.00000
     30      -3.4030      1.00000
     31      -3.4030      1.00000
     32      -3.3845      1.00000
     33      -3.3689      1.00000
     34      -3.3689      1.00000
     35      -3.3184      1.00000
     36      -3.2740      1.00000
     37      -3.2501      1.00000
     38      -3.2492      1.00000
     39      -3.2492      1.00000
     40      -3.2310      1.00000
     41      -3.2223      1.00000
     42      -3.2223      1.00000
     43      -3.2160      1.00000
     44      -3.1675      1.00000
     45      -3.1570      1.00000
     46      -3.1570      1.00000
     47      -3.1351      1.00000
     48      -3.1299      1.00000
     49      -3.1299      1.00000
     50      -3.1056      1.00000
     51      -3.0858      1.00000
     52      -3.0858      1.00000
     53      -3.0555      1.00000
     54      -3.0386      1.00000
     55      -3.0201      1.00000
     56      -3.0201      1.00000
     57      -2.9151      1.00000
     58      -2.8916      1.00000
     59      -2.8916      1.00000
     60      -2.8009      1.00000
[...]
    326       8.2578      0.00000
    327       8.3219      0.00000
    328       8.4394      0.00000
    329       8.5410      0.00000
    330       8.5898      0.00000
    331       9.1406      0.00000
    332       9.1406      0.00000
    333       9.1683      0.00000
    334       9.1683      0.00000
    335       9.2416      0.00000
    336       9.2416      0.00000
    337       9.2611      0.00000
    338       9.3985      0.00000
    339       9.3985      0.00000
    340       9.6066      0.00000

[...]

 soft charge-density along one line, spin component           2
         0         1         2         3         4         5         6         7         8         9
 total charge-density along one line

------------------------ aborting loop because EDIFF is reached ----------------------------------------

 DIPCOR: dipole corrections for dipol
 direction  3 min pos   163,
 dipolmoment           0.000000      0.000000     -0.018715 electrons x Angstroem
 Tr[quadrupol]     -5212.521860

 energy correction for charged system         0.000000 eV
 dipol+quadrupol energy correction            0.000025 eV
 added-field ion interaction          0.000000 eV  (added to PSCEN)

  *************** adding dipol energy to TOTEN NOW ****************

         DFTD3 V3.0 Rev 1
 Edisp (eV)  -18.72209

 E6    (eV) :    -7.4815
 E8    (eV) :   -11.2406
 % E8        : 60.04

  FORCE on cell =-STRESS in cart. coord.  units (eV):
  Direction    XX          YY          ZZ          XY          YZ          ZX
  Alpha Z  1327.86870  1327.86870  1327.86870
  Ewald  292342.08398292342.08398************    -0.00000     0.00000     0.00000
  Hartree310481.55886310481.55886************    -0.00000    -0.00000    -0.00000
  E(xc)   -3085.53142 -3085.53142 -3089.38292     0.00000    -0.00000    -0.00000
  Local  ************************620631.95080    -0.00000     0.00000     0.00000
  n-local -1037.91312 -1025.33685 -1043.18090     4.64084     0.00000     0.00000
  augment  4541.54560  4541.54560  4546.44240     0.00000    -0.00000    -0.00000
  Kinetic  4304.31755  4317.16860  4323.79983     2.49560    -0.00000    -0.00000
  Fock        0.00000     0.00000     0.00000     0.00000     0.00000     0.00000
  vdW       -22.70990   -22.70990   -16.21187    -0.00000     0.00000     0.00000
  Total     -21.29160   -21.29160    -8.35275     0.00000    -0.00000     0.00000
  in kB     -26.88309   -26.88309   -10.54631     0.00000    -0.00000     0.00000

 VOLUME and BASIS-vectors are now :
  energy-cutoff  :      400.00
  volume of cell :     1268.94
      direct lattice vectors                 reciprocal lattice vectors
     7.260000229  0.000000000  0.000000000     0.137741042  0.000000000  0.000000000
     0.000000000  7.260000229  0.000000000     0.000000000  0.137741042  0.000000000
     0.000000000  0.000000000 24.075000000     0.000000000  0.000000000  0.041536864

  length of vectors
     7.260000229  7.260000229 24.075000000     0.137741042  0.137741042  0.041536864

 FORCES acting on ions
    electron-ion (+dipol)            ewald-force                    non-local-force                 convergence-correction
   -.121E-12 -.119E-11 0.458E+04   -.356E-06 -.356E-06 -.458E+04   -.132E-22 -.199E-22 -.366E+01   0.538E-10 0.542E-10 0.246E-02
   -.124E-12 0.174E-05 0.458E+04   -.356E-06 0.148E-06 -.458E+04   -.124E-22 0.331E-22 -.366E+01   0.519E-10 -.468E-10 0.246E-02
   0.174E-05 -.335E-12 0.458E+04   0.148E-06 -.356E-06 -.458E+04   -.993E-23 -.132E-22 -.366E+01   -.468E-10 0.539E-10 0.246E-02
   0.174E-05 0.174E-05 0.458E+04   0.148E-06 0.148E-06 -.458E+04   0.662E-23 -.529E-22 -.366E+01   -.450E-10 -.476E-10 0.246E-02
   0.871E-06 0.871E-06 0.458E+04   -.148E-06 -.148E-06 -.458E+04   0.447E-22 0.496E-23 -.366E+01   0.567E-10 0.560E-10 0.246E-02
   0.871E-06 0.261E-05 0.458E+04   -.148E-06 0.356E-06 -.458E+04   0.157E-22 -.141E-22 -.366E+01   0.566E-10 -.446E-10 0.246E-02
   0.261E-05 0.871E-06 0.458E+04   0.356E-06 -.148E-06 -.458E+04   -.132E-22 -.662E-23 -.366E+01   -.465E-10 0.579E-10 0.246E-02
   0.261E-05 0.261E-05 0.458E+04   0.356E-06 0.356E-06 -.458E+04   0.165E-23 0.430E-22 -.366E+01   -.464E-10 -.496E-10 0.246E-02
   -.937E-13 0.847E-06 0.282E+04   -.481E-06 -.195E-06 -.282E+04   -.662E-23 -.728E-22 -.522E+00   0.104E-09 0.985E-10 0.435E-02
   -.704E-13 0.254E-05 0.282E+04   -.481E-06 0.481E-06 -.282E+04   -.199E-22 0.993E-23 -.522E+00   0.103E-09 -.788E-10 0.435E-02
   0.169E-05 0.847E-06 0.282E+04   0.195E-06 -.195E-06 -.282E+04   0.199E-22 0.199E-22 -.522E+00   -.669E-10 0.993E-10 0.435E-02
   0.169E-05 0.254E-05 0.282E+04   0.195E-06 0.481E-06 -.282E+04   0.265E-22 0.265E-22 -.522E+00   -.659E-10 -.795E-10 0.435E-02
   0.847E-06 0.152E-12 0.282E+04   -.195E-06 -.481E-06 -.282E+04   0.662E-23 0.265E-22 -.522E+00   0.997E-10 0.107E-09 0.435E-02
   0.847E-06 0.169E-05 0.282E+04   -.195E-06 0.195E-06 -.282E+04   0.265E-22 0.199E-22 -.522E+00   0.995E-10 -.701E-10 0.435E-02
   0.254E-05 -.403E-12 0.282E+04   0.481E-06 -.481E-06 -.282E+04   -.397E-22 0.199E-22 -.522E+00   -.806E-10 0.106E-09 0.435E-02
   0.254E-05 0.169E-05 0.282E+04   0.481E-06 0.195E-06 -.282E+04   0.265E-22 -.331E-22 -.522E+00   -.804E-10 -.671E-10 0.435E-02
   -.708E-13 0.138E-12 0.950E+03   -.507E-06 -.507E-06 -.950E+03   0.000E+00 0.116E-22 -.214E-01   -.120E-09 -.115E-09 0.180E-02
   -.640E-13 0.169E-05 0.950E+03   -.507E-06 0.210E-06 -.950E+03   -.265E-22 0.298E-22 -.214E-01   -.118E-09 -.205E-09 0.180E-02
   0.169E-05 0.420E-12 0.950E+03   0.210E-06 -.507E-06 -.950E+03   0.132E-22 0.496E-22 -.214E-01   -.201E-09 -.116E-09 0.180E-02
   0.169E-05 0.169E-05 0.950E+03   0.210E-06 0.210E-06 -.950E+03   -.364E-22 -.265E-22 -.214E-01   -.202E-09 -.202E-09 0.180E-02
   0.845E-06 0.845E-06 0.950E+03   -.210E-06 -.210E-06 -.950E+03   -.662E-23 -.265E-22 -.214E-01   0.119E-10 0.939E-11 0.180E-02
   0.845E-06 0.253E-05 0.950E+03   -.210E-06 0.507E-06 -.950E+03   0.132E-22 0.248E-22 -.214E-01   0.127E-10 -.808E-10 0.180E-02
   0.253E-05 0.845E-06 0.950E+03   0.507E-06 -.210E-06 -.950E+03   0.265E-22 0.199E-22 -.214E-01   -.829E-10 0.609E-11 0.180E-02
   0.253E-05 0.253E-05 0.950E+03   0.507E-06 0.507E-06 -.950E+03   0.000E+00 0.331E-22 -.214E-01   -.837E-10 -.784E-10 0.180E-02
   -.725E-13 0.845E-06 -.925E+03   -.507E-06 -.210E-06 0.924E+03   0.132E-21 0.159E-21 -.976E-01   -.676E-10 -.328E-10 0.288E+00
   -.692E-13 0.253E-05 -.925E+03   -.507E-06 0.507E-06 0.924E+03   0.000E+00 -.529E-22 -.976E-01   -.670E-10 -.108E-09 0.288E+00
   0.169E-05 0.845E-06 -.925E+03   0.210E-06 -.210E-06 0.924E+03   -.529E-22 -.159E-21 -.976E-01   -.140E-09 -.300E-10 0.288E+00
   0.169E-05 0.253E-05 -.925E+03   0.210E-06 0.507E-06 0.924E+03   -.238E-21 -.529E-22 -.976E-01   -.141E-09 -.107E-09 0.288E+00
   0.845E-06 -.460E-12 -.925E+03   -.210E-06 -.507E-06 0.924E+03   0.318E-21 -.159E-21 -.976E-01   -.307E-10 -.668E-10 0.288E+00
   0.845E-06 0.169E-05 -.925E+03   -.210E-06 0.210E-06 0.924E+03   0.106E-21 -.106E-21 -.976E-01   -.301E-10 -.139E-09 0.288E+00
   0.253E-05 -.264E-12 -.925E+03   0.507E-06 -.507E-06 0.924E+03   -.212E-21 -.529E-22 -.976E-01   -.110E-09 -.667E-10 0.288E+00
   0.253E-05 0.169E-05 -.925E+03   0.507E-06 0.210E-06 0.924E+03   -.318E-21 -.265E-21 -.976E-01   -.111E-09 -.140E-09 0.288E+00
   -.663E-13 0.104E-12 -.280E+04   -.496E-06 -.496E-06 0.280E+04   -.397E-22 0.926E-22 -.261E-01   0.149E-09 0.147E-09 0.128E+00
   -.625E-13 0.169E-05 -.280E+04   -.496E-06 0.197E-06 0.280E+04   0.000E+00 -.265E-22 -.261E-01   0.149E-09 0.128E-09 0.128E+00
   0.169E-05 -.144E-11 -.280E+04   0.197E-06 -.496E-06 0.280E+04   -.662E-23 0.132E-22 -.261E-01   0.125E-09 0.145E-09 0.128E+00
   0.169E-05 0.169E-05 -.280E+04   0.197E-06 0.197E-06 0.280E+04   0.132E-22 -.132E-22 -.261E-01   0.126E-09 0.128E-09 0.128E+00
   0.843E-06 0.843E-06 -.280E+04   -.197E-06 -.197E-06 0.280E+04   0.000E+00 0.265E-22 -.261E-01   0.153E-10 0.151E-10 0.128E+00
   0.843E-06 0.253E-05 -.280E+04   -.197E-06 0.496E-06 0.280E+04   0.265E-22 -.529E-22 -.261E-01   0.165E-10 -.388E-11 0.128E+00
   0.253E-05 0.843E-06 -.280E+04   0.496E-06 -.197E-06 0.280E+04   0.265E-22 -.265E-22 -.261E-01   -.509E-11 0.176E-10 0.128E+00
   0.253E-05 0.253E-05 -.280E+04   0.496E-06 0.496E-06 0.280E+04   0.331E-22 0.132E-22 -.261E-01   -.625E-11 -.286E-11 0.128E+00
   -.851E-13 0.866E-06 -.462E+04   -.373E-06 -.152E-06 0.462E+04   -.397E-22 -.232E-22 0.387E+01   0.136E-11 -.566E-10 0.756E-02
   -.926E-13 0.260E-05 -.462E+04   -.373E-06 0.373E-06 0.462E+04   0.199E-22 -.331E-23 0.387E+01   0.508E-12 0.711E-10 0.756E-02
   0.173E-05 0.866E-06 -.462E+04   0.152E-06 -.152E-06 0.462E+04   -.910E-23 0.397E-22 0.387E+01   0.124E-09 -.577E-10 0.756E-02
   0.173E-05 0.260E-05 -.462E+04   0.152E-06 0.373E-06 0.462E+04   0.993E-23 -.331E-23 0.387E+01   0.125E-09 0.722E-10 0.756E-02
   0.866E-06 -.117E-11 -.462E+04   -.152E-06 -.373E-06 0.462E+04   -.993E-23 0.265E-22 0.387E+01   -.577E-10 -.802E-12 0.756E-02
   0.866E-06 0.173E-05 -.462E+04   -.152E-06 0.152E-06 0.462E+04   -.199E-22 0.265E-22 0.387E+01   -.582E-10 0.128E-09 0.756E-02
   0.260E-05 -.847E-12 -.462E+04   0.373E-06 -.373E-06 0.462E+04   -.265E-22 -.651E-23 0.387E+01   0.725E-10 -.334E-11 0.756E-02
   0.260E-05 0.173E-05 -.462E+04   0.373E-06 0.152E-06 0.462E+04   -.248E-23 -.993E-23 0.387E+01   0.729E-10 0.128E-09 0.756E-02
   0.614E-04 0.614E-04 0.770E-01   0.248E-12 -.125E-12 -.136E-10   -.246E-21 -.509E-21 -.363E+01   -.483E-09 -.467E-09 0.346E+01

 POSITION                                       TOTAL-FORCE (eV/Angst)
      0.00000      0.00000      0.00000        -0.000000     -0.000000      0.379299
      0.00000      3.63000      0.00000        -0.000000      0.000000      0.379299
      3.63000      0.00000      0.00000        -0.000000     -0.000000      0.379299
      3.63000      3.63000      0.00000        -0.000000      0.000000      0.379299
      1.81500      1.81500      0.00000         0.000000     -0.000000      0.379299
      1.81500      5.44500      0.00000         0.000000      0.000000      0.379299
      5.44500      1.81500      0.00000         0.000000     -0.000000      0.379299
      5.44500      5.44500      0.00000        -0.000000     -0.000000      0.379299
      0.00000      1.81500      1.81500        -0.000000     -0.000000     -0.383217
      0.00000      5.44500      1.81500        -0.000000      0.000000     -0.383217
      3.63000      1.81500      1.81500        -0.000000     -0.000000     -0.383217
      3.63000      5.44500      1.81500        -0.000000      0.000000     -0.383217
      1.81500      0.00000      1.81500         0.000000      0.000000     -0.383217
      1.81500      3.63000      1.81500         0.000000     -0.000000     -0.383217
      5.44500      0.00000      1.81500        -0.000000     -0.000000     -0.383217
      5.44500      3.63000      1.81500        -0.000000     -0.000000     -0.383217
     -0.00000      0.00000      3.56412         0.000000      0.000000      0.009118
      0.00000      3.63000      3.56412         0.000000      0.000000      0.009118
      3.63000      0.00000      3.56412        -0.000000     -0.000000      0.009118
      3.63000      3.63000      3.56412         0.000000      0.000000      0.009118
      1.81500      1.81500      3.56412         0.000000      0.000000      0.009118
      1.81500      5.44500      3.56412         0.000000     -0.000000      0.009118
      5.44500      1.81500      3.56412        -0.000000      0.000000      0.009118
      5.44500      5.44500      3.56412        -0.000000     -0.000000      0.009118
     -0.00000      1.81500      5.31221        -0.000000      0.000000     -0.006105
      0.00000      5.44500      5.31221        -0.000000      0.000000     -0.006105
      3.63000      1.81500      5.31221         0.000000      0.000000     -0.006105
      3.63000      5.44500      5.31221         0.000000      0.000000     -0.006105
      1.81500      0.00000      5.31221         0.000000     -0.000000     -0.006105
      1.81500      3.63000      5.31221        -0.000000      0.000000     -0.006105
      5.44500     -0.00000      5.31221        -0.000000     -0.000000     -0.006105
      5.44500      3.63000      5.31221         0.000000     -0.000000     -0.006105
     -0.00000     -0.00000      7.06705        -0.000000      0.000000     -0.015953
      0.00000      3.63000      7.06705        -0.000000      0.000000     -0.015953
      3.63000     -0.00000      7.06705         0.000000     -0.000000     -0.015953
      3.63000      3.63000      7.06705         0.000000     -0.000000     -0.015953
      1.81500      1.81500      7.06705        -0.000000      0.000000     -0.015953
      1.81500      5.44500      7.06705         0.000000      0.000000     -0.015953
      5.44500      1.81500      7.06705         0.000000     -0.000000     -0.015953
      5.44500      5.44500      7.06705         0.000000      0.000000     -0.015953
     -0.00000      1.81500      8.78272        -0.000000     -0.000000      0.016858
     -0.00000      5.44500      8.78272         0.000000      0.000000      0.016858
      3.63000      1.81500      8.78272        -0.000000      0.000000      0.016858
      3.63000      5.44500      8.78272        -0.000000      0.000000      0.016858
      1.81500      0.00000      8.78272         0.000000     -0.000000      0.016858
      1.81500      3.63000      8.78272        -0.000000     -0.000000      0.016858
      5.44500      0.00000      8.78272         0.000000      0.000000      0.016858
      5.44500      3.63000      8.78272         0.000000     -0.000000      0.016858
    total drift:                                0.000061      0.000061     -0.095181

  FREE ENERGIE OF THE ION-ELECTRON SYSTEM (eV)
  free  energy   TOTEN  =      -187.86628681 eV

  energy  without entropy=     -187.85345066  energy(sigma->0) =     -187.86200809

 d Force = 0.2534194E-03[-0.378E-03, 0.885E-03]  d Energy = 0.4962817E-03-0.243E-03
 d Force = 0.7097850E+02[ 0.710E+02, 0.710E+02]  d Ewald  = 0.7097851E+02-0.133E-04

 stress matrix after NEB project (eV)
    -21.29160      0.00000      0.00000
      0.00000    -21.29160     -0.00000
      0.00000     -0.00000     -8.35275
  FORCES: max atom, RMS     0.016858    0.010481
  FORCE total and by dimension    0.072615    0.016858
  Stress total and by dimension   31.247923   21.291597

 reached required accuracy - stopping structural energy minimisation