 vasp.6.3.2 27Jun22 (build Aug 17 2022 15:43:34) complex

 executed on           tv2STDVTST date 2025.02.04  13:55:01

 INCAR:
   ISTART = 0
   ICHARG = 2
   IPIPOL = 3
   IVDW = 11
   ISPIN = 2
   ENCUT = 400
   PREC = Normal
   EDIFF = 2E-04
   GGA = PE
   ISMEAR = 1
   SIGMA = 0.2
   LREAL = .FALSE.
   ISYM = 1
   NSW = 800
   IBRION = 2
   POTIM = 0.5
   ISIF = 2
   EDIFFG = -.03
   NPAR = 4
   LWAVE = .FALSE.
   LCHARG = .FALSE.

 POTCAR:    PAW_PBE Cu 22Jun2005
 POTCAR:    PAW_PBE H 15Jun2001
|           W    W    AA    RRRRR   N    N  II  N    N   GGGG   !!!           |
|           W    W   A  A   R    R  NN   N  II  NN   N  G    G  !!!           |
|           W    W  A    A  R    R  N N  N  II  N N  N  G       !!!           |
|           W WW W  AAAAAA  RRRRR   N  N N  II  N  N N  G  GGG   !            |
|           WW  WW  A    A  R   R   N   NN  II  N   NN  G    G                |
|           W    W  A    A  R    R  N    N  II  N    N   GGGG   !!!           |
|     You use a magnetic or noncollinear calculation, but did not specify     |
|     the initial magnetic moment with the MAGMOM tag. Note that a            |
|     default of 1 will be used for all atoms. This ferromagnetic setup       |
|     may break the symmetry of the crystal, in particular it may rule        |
|     out finding an antiferromagnetic solution. Thence, we recommend         |
|     setting the initial magnetic moment manually or verifying carefully     |
|     that this magnetic setup is desired.                                    |

   TITEL  = PAW_PBE Cu 22Jun2005
   POMASS =   63.546; ZVAL   =   11.000    mass and valenz
   ENMAX  =  295.446; ENMIN  =  221.585 eV

   TITEL  = PAW_PBE H 15Jun2001
   POMASS =    1.000; ZVAL   =    1.000    mass and valenz
   ENMAX  =  250.000; ENMIN  =  200.000 eV

  PAW_PBE Cu 22Jun2005                  :
  PAW_PBE H 15Jun2001                   :

 POSCAR: FCC Cu
  positions in cartesian coordinates
 exchange correlation table for  LEXCH =        8
   RHO(1)=    0.500       N(1)  =     2000
   RHO(2)=  100.500       N(2)  =     4000

 VTST: version 4.2, (08/11/21)

 CHAIN: initializing optimizer

 OPT: Using VASP Conjugate-Gradient optimizer
 CHAIN: Read ICHAIN            0

 POSCAR: FCC Cu
  positions in cartesian coordinates

 ion  position               nearest neighbor table
   1  0.000  0.000  0.000-   3 2.51   2 2.57   2 2.57   2 2.57   2 2.57
   2  0.500  0.500  0.054-   4 2.50   3 2.54   3 2.54   3 2.54   3 2.54   1 2.57   1 2.57   1 2.57
                             1 2.57
   3  0.000  0.000  0.105-   1 2.51   2 2.54   2 2.54   2 2.54   2 2.54   5 2.54   4 2.56   4 2.56
                             4 2.56   4 2.56
   4  0.500  0.500  0.158-   2 2.50   6 2.52   5 2.56   5 2.56   5 2.56   5 2.56   3 2.56   3 2.56
                             3 2.56   3 2.56
   5  0.000  0.000  0.211-   3 2.54   6 2.55   6 2.55   6 2.55   6 2.55   7 2.55   4 2.56   4 2.56
                             4 2.56   4 2.56
   6  0.500  0.500  0.263-   8 2.44   4 2.52   5 2.55   5 2.55   5 2.55   5 2.55   7 2.58   7 2.58
                             7 2.58   7 2.58
   7  0.000  0.000  0.317-   8 2.50   8 2.50   8 2.50   8 2.50   5 2.55   6 2.58   6 2.58   6 2.58
                             6 2.58
   8  0.500  0.500  0.365-   9 1.49   6 2.44   7 2.50   7 2.50   7 2.50   7 2.50
   9  0.500  0.500  0.427-  10 0.75   8 1.49
  10  0.500  0.500  0.458-   9 0.75

  LATTYP: Found a simple orthorhombic cell.
 ALAT       =     2.5667977333
 B/A-ratio  =     1.4142135422
 C/A-ratio  =     9.3438571494

  Lattice vectors:

 A1 = (   0.0000000000,  -2.5667977333,   0.0000000000)
 A2 = (   3.6300001144,   0.0000000000,   0.0000000000)
 A3 = (   0.0000000000,   0.0000000000,  23.9837913513)

Analysis of symmetry for initial positions (statically):
 Subroutine PRICEL returns:
 Original cell was already a primitive cell.

 Routine SETGRP: Setting up the symmetry group for a
 simple orthorhombic supercell.

 Subroutine GETGRP returns: Found  4 space group operations
 (whereof  4 operations were pure point group operations)
 out of a pool of  8 trial point group operations.

The static configuration has the point symmetry C_2v.

Analysis of symmetry for dynamics (positions and initial velocities):
 Subroutine PRICEL returns:
 Original cell was already a primitive cell.

[...]

The dynamic configuration has the point symmetry C_2v.

Analysis of structural, dynamic, and magnetic symmetry:
 Subroutine PRICEL returns:
 Original cell was already a primitive cell.

 Routine SETGRP: Setting up the symmetry group for a
 simple orthorhombic supercell.

 Subroutine GETGRP returns: Found  4 space group operations
 (whereof  4 operations were pure point group operations)
 out of a pool of  8 trial point group operations.

The overall configuration has the point symmetry C_2v.

 Subroutine INISYM returns: Found  4 space group operations
 (whereof  4 operations are pure point group operations),
 and found     1 'primitive' translations

                                     Primitive cell

  volume of cell :     223.4684

  direct lattice vectors                    reciprocal lattice vectors
     3.630000114  0.000000000  0.000000000     0.275482085  0.000000000  0.000000000
     0.000000000  2.566797733  0.000000000     0.000000000  0.389590495  0.000000000
     0.000000000  0.000000000 23.983791351     0.000000000  0.000000000  0.041694826

  length of vectors
     3.630000114  2.566797733 23.983791351     0.275482085  0.389590495  0.041694826

  position of ions in fractional coordinates (direct lattice)
     0.000000000  0.000000000  0.000000000
     0.500000000  0.500000000  0.053511090
     0.000000000  0.000000000  0.104681476
     0.500000000  0.500000000  0.157929955
     0.000000000  0.000000000  0.210708991
     0.500000000  0.500000000  0.262890478
     0.000000000  0.000000000  0.317115916
     0.500000000  0.500000000  0.364675901
     0.500000000  0.500000000  0.426907920
     0.500000000  0.500000000  0.458012260

  ion indices of the primitive-cell ions
   primitive index   ion index
                 1           1
                 2           2
                 3           3
                 4           4
                 5           5
                 6           6
                 7           7
                 8           8
                 9           9
                10          10

 KPOINTS: Auto-mesh

Automatic generation of k-mesh.
 Grid dimensions read from file:
 generate k-points for:    3    3    1

 Generating k-lattice:

  Cartesian coordinates                     Fractional coordinates (reciprocal lattice)
     0.091827362  0.000000000  0.000000000     0.333333333  0.000000000  0.000000000
     0.000000000  0.129863498  0.000000000     0.000000000  0.333333333  0.000000000
     0.000000000  0.000000000  0.041694826     0.000000000  0.000000000  1.000000000

  Length of vectors
     0.091827362  0.129863498  0.041694826

  Shift w.r.t. Gamma in fractional coordinates (k-lattice)
     0.000000000  0.000000000  0.000000000

 Subroutine IBZKPT returns following result:

 Found      4 irreducible k-points:

 Following reciprocal coordinates:
            Coordinates               Weight
  0.000000  0.000000  0.000000      1.000000
  0.333333  0.000000  0.000000      2.000000
  0.000000  0.333333  0.000000      2.000000
  0.333333  0.333333  0.000000      4.000000

 Following cartesian coordinates:
            Coordinates               Weight
  0.000000  0.000000  0.000000      1.000000
  0.091827  0.000000  0.000000      2.000000
  0.000000  0.129863  0.000000      2.000000
  0.091827  0.129863  0.000000      4.000000

 SYSTEM =  unknown system
 POSCAR =  FCC Cu

 Startparameter for this run:
   NWRITE =      2    write-flag & timer
   PREC   = normal    normal or accurate (medium, high low for compatibility)
   ISTART =      0    job   : 0-new  1-cont  2-samecut
   ICHARG =      2    charge: 1-file 2-atom 10-const
   ISPIN  =      2    spin polarized calculation?
   LNONCOLLINEAR =      F non collinear calculations
   LSORBIT =      F    spin-orbit coupling
   INIWAV =      1    electr: 0-lowe 1-rand  2-diag
   LASPH  =      F    aspherical Exc in radial PAW
 Electronic Relaxation 1
   ENCUT  =  400.0 eV  29.40 Ry    5.42 a.u.   5.92  4.19 39.11*2*pi/ulx,y,z
   ENINI  =  400.0     initial cutoff
   ENAUG  =  587.0 eV  augmentation charge cutoff
   NELM   =     60;   NELMIN=  2; NELMDL= -5     # of ELM steps
   EDIFF  = 0.2E-03   stopping-criterion for ELM
   LREAL  =      F    real-space projection
   NLSPLINE    = F    spline interpolate recip. space projectors
   LCOMPAT=      F    compatible to vasp.4.4
   GGA_COMPAT  = T    GGA compatible to vasp.4.4-vasp.4.6
   LMAXPAW     = -100 max onsite density
   LMAXMIX     =    2 max onsite mixed and CHGCAR
   VOSKOWN=      0    Vosko Wilk Nusair interpolation
   ROPT   =    0.00000   0.00000
 Ionic relaxation
   EDIFFG = -.3E-01   stopping-criterion for IOM
   NSW    =    800    number of steps for IOM
   NBLOCK =      1;   KBLOCK =    800    inner block; outer block
   IBRION =      2    ionic relax: 0-MD 1-quasi-New 2-CG
   NFREE  =      1    steps in history (QN), initial steepest desc. (CG)
   ISIF   =      2    stress and relaxation
   IWAVPR =     11    prediction:  0-non 1-charg 2-wave 3-comb
   ISYM   =      1    0-nonsym 1-usesym 2-fastsym
   LCORR  =      T    Harris-Foulkes like correction to forces

   POTIM  = 0.5000    time-step for ionic-motion
   TEIN   =    0.0    initial temperature
   TEBEG  =    0.0;   TEEND  =   0.0 temperature during run
   SMASS  =  -3.00    Nose mass-parameter (am)
   estimated Nose-frequenzy (Omega)   =  0.10E-29 period in steps = 0.13E+47 mass=  -0.301E-27a.u.
   SCALEE = 1.0000    scale energy and forces
   NPACO  =    256;   APACO  = 10.0  distance and # of slots for P.C.
   PSTRESS=    0.0 pullay stress

  Mass of Ions in am
   POMASS =  63.55  1.00
  Ionic Valenz
   ZVAL   =  11.00  1.00
  Atomic Wigner-Seitz radii
  virtual crystal weights
   VCA    =   1.00  1.00
   NELECT =      90.0000    total number of electrons
   NUPDOWN=      -1.0000    fix difference up-down

 DOS related values:
   EMIN   =  10.00;   EMAX   =-10.00  energy-range for DOS
   EFERMI =   0.00
   ISMEAR =     1;   SIGMA  =   0.20  broadening in eV -4-tet -1-fermi 0-gaus

 Electronic relaxation 2 (details)
   IALGO  =     38    algorithm
   LDIAG  =      T    sub-space diagonalisation (order eigenvalues)
   LSUBROT=      F    optimize rotation matrix (better conditioning)
   TURBO    =      0    0=normal 1=particle mesh
   IRESTART =      0    0=no restart 2=restart with 2 vectors
   NREBOOT  =      0    no. of reboots
   NMIN     =      0    reboot dimension
   EREF     =   0.00    reference energy to select bands
   IMIX   =      4    mixing-type and parameters
     AMIX     =   0.40;   BMIX     =  1.00
     AMIX_MAG =   1.60;   BMIX_MAG =  1.00
     AMIN     =   0.10
     WC   =   100.;   INIMIX=   1;  MIXPRE=   1;  MAXMIX= -45

 Intra band minimization:
   WEIMIN = 0.0010     energy-eigenvalue tresh-hold
   EBREAK =  0.83E-06  absolut break condition
   DEPER  =   0.30     relativ break condition

[...]
      0.00000      0.00000      1.91874
  FORCES: max atom, RMS     0.626637    0.328430
  FORCE total and by dimension    1.038586    0.626637
  Stress total and by dimension    6.823361    4.861892
 Steepest descent step on ions:
 trial-energy change:   -0.206482  1 .order   -0.212157   -0.327866   -0.096449
  (g-gl).g = 0.328E+00      g.g   = 0.328E+00  gl.gl    = 0.000E+00
 g(Force)  = 0.328E+00   g(Stress)= 0.000E+00 ortho     = 0.000E+00
 gamma     =   0.00000
 trial     =   1.00000
 opt step  =   1.53876  (harmonic =   1.41677) maximal distance =0.09493301
 next E    =   -38.377643   (d E  =  -0.23158)

[...]

 d Force = 0.2493291E-01[-0.210E-02, 0.520E-01]  d Energy = 0.2496138E-01-0.285E-04
 d Force =-0.2303967E+03[-0.231E+03,-0.230E+03]  d Ewald  =-0.2304045E+03 0.779E-02

[...]

 stress matrix after NEB project (eV)
     -4.30531      0.00000      0.00000
      0.00000     -4.22416      0.00000
      0.00000      0.00000      2.29603
  FORCES: max atom, RMS     0.892974    0.349972
  FORCE total and by dimension    1.106709    0.892974
  Stress total and by dimension    6.453758    4.305310
 Conjugate gradient step on ions:
 trial-energy change:   -0.045857  1 .order   -0.044677   -0.075051   -0.014302
  (g-gl).g = 0.725E-01      g.g   = 0.686E-01  gl.gl    = 0.328E+00
 g(Force)  = 0.686E-01   g(Stress)= 0.000E+00 ortho     =-0.389E-02
 gamma     =   0.22114
 trial     =   1.10775
 opt step  =   1.33638  (harmonic =   1.36855) maximal distance =0.05744249
 next E    =   -38.424854   (d E  =  -0.04734)

[...]

 stress matrix after NEB project (eV)
     -3.78257      0.00000      0.00000
      0.00000     -3.74250      0.00000
      0.00000      0.00000      2.47486
  FORCES: max atom, RMS     0.625157    0.234295
  FORCE total and by dimension    0.740905    0.625157
  Stress total and by dimension    5.868486    3.782571
 Conjugate gradient step on ions:
 trial-energy change:   -0.028148  1 .order   -0.027430   -0.034689   -0.020171
  (g-gl).g = 0.949E-01      g.g   = 0.897E-01  gl.gl    = 0.686E-01
 g(Force)  = 0.897E-01   g(Stress)= 0.000E+00 ortho     = 0.103E-02
 gamma     =   1.38315
 trial     =   0.38086
 opt step  =   0.91000  (harmonic =   0.91000) maximal distance =0.06354728
 next E    =   -38.466718   (d E  =  -0.04144)

[...]

 d Force = 0.1006193E-02[ 0.491E-03, 0.152E-02]  d Energy = 0.1384076E-02-0.378E-03
 d Force =-0.2878616E+02[-0.288E+02,-0.288E+02]  d Ewald  =-0.2878617E+02 0.720E-05

[...]

 d Force = 0.9028089E-02[ 0.315E-02, 0.149E-01]  d Energy = 0.9042698E-02-0.146E-04
 d Force = 0.2313143E+02[ 0.231E+02, 0.232E+02]  d Ewald  = 0.2313130E+02 0.134E-03

[...]

 d Force = 0.4519345E-02[-0.200E-03, 0.924E-02]  d Energy = 0.5315591E-02-0.796E-03
 d Force = 0.2403919E+03[ 0.240E+03, 0.241E+03]  d Ewald  = 0.2403932E+03-0.129E-02

[...]

 stress matrix after NEB project (eV)
     -4.91984      0.00000      0.00000
      0.00000     -4.41740      0.00000
      0.00000      0.00000     -0.27449
  FORCES: max atom, RMS     0.050169    0.022972
  FORCE total and by dimension    0.072644    0.050169
  Stress total and by dimension    6.617676    4.919842
 Conjugate gradient step on ions:
 trial-energy change:   -0.002141  1 .order   -0.001648   -0.002561   -0.000734
  (g-gl).g = 0.964E-03      g.g   = 0.222E-02  gl.gl    = 0.379E-02
 g(Force)  = 0.222E-02   g(Stress)= 0.000E+00 ortho     = 0.298E-03
 gamma     =   0.25453
 trial     =   1.11405
 opt step  =   1.56176  (harmonic =   1.56176) maximal distance =0.00888995
 next E    =   -38.541056   (d E  =  -0.00180)

[...]

 d Force = 0.3407197E-03[ 0.386E-03, 0.295E-03]  d Energy = 0.4545614E-03-0.114E-03
 d Force = 0.1703927E+02[ 0.170E+02, 0.170E+02]  d Ewald  = 0.1703926E+02 0.320E-05

[...]

 d Force =-0.8475599E-05[-0.262E-04, 0.920E-05]  d Energy =-0.4325211E-04 0.348E-04
 d Force =-0.3519191E+01[-0.352E+01,-0.352E+01]  d Ewald  =-0.3519191E+01-0.280E-07

[...]

 d Force = 0.3476416E-05[-0.133E-04, 0.202E-04]  d Energy =-0.3360754E-05 0.684E-05
 d Force =-0.6068061E+00[-0.607E+00,-0.607E+00]  d Ewald  =-0.6068061E+00-0.327E-09

[...]

 eigenvalues of (default mixing * dielectric matrix)
  average eigenvalue GAMMA=   0.5281
  0.5281

[...]

 eigenvalue-minimisations  :   656
 total energy-change (2. order) : 0.6689790E-04  (-0.3863242E-04)
 number of electron      90.0000833 magnetization       0.0000002
 augmentation part       56.1839974 magnetization       0.0000001

[...]

 d Force =-0.5015304E-04[-0.103E-03, 0.248E-05]  d Energy =-0.1980272E-04-0.304E-04
 d Force =-0.4425474E+00[-0.443E+00,-0.443E+00]  d Ewald  =-0.4425474E+00-0.195E-08

[...]

 d Force = 0.1252581E-05[-0.171E-04, 0.196E-04]  d Energy = 0.5764788E-05-0.451E-05
 d Force =-0.2160482E+00[-0.216E+00,-0.216E+00]  d Ewald  =-0.2160482E+00-0.575E-09

[...]

 stress matrix after NEB project (eV)
     -5.14317      0.00000      0.00000
      0.00000     -4.65091      0.00000
      0.00000      0.00000     -0.58404
  FORCES: max atom, RMS     0.066372    0.027086
  FORCE total and by dimension    0.085654    0.066372
  Stress total and by dimension    6.958756    5.143173

[...]

 Broyden mixing:
  rms(total) = 0.24595E-02    rms(broyden)= 0.24521E-02
  rms(prec ) = 0.25651E-02
  weight for this iteration     100.00

[...]

--------------------------------------- Iteration     36(   2)  ---------------------------------------

 eigenvalue-minimisations  :  1048
 total energy-change (2. order) :-0.9511949E-04  (-0.1055109E-03)
 number of electron      90.0000835 magnetization       0.0000001
 augmentation part       56.1836136 magnetization       0.0000001

 Free energy of the ion-electron system (eV)
  alpha Z        PSCENC =       216.17040255
  Ewald energy   TEWEN  =     42125.36461676
  -Hartree energ DENC   =    -52855.68861957
  -exchange      EXHF   =         0.00000000
  -V(xc)+E(xc)   XCENC  =       362.09412706
  PAW double counting   =     10520.44632405   -11382.33826056
  entropy T*S    EENTRO =        -0.00628785
  eigenvalues    EBANDS =      -174.02875474
  atomic energy  EATOM  =     11152.61838693
  Solvation  Ediel_sol  =         0.00000000
  free energy    TOTEN  =       -35.36806537 eV

  energy without entropy =      -35.36177752  energy(sigma->0) =      -35.36596942

 average (electrostatic) potential at core
  the test charge radii are     0.9430  0.5201
  (the norm of the test charge is              1.0000)
       1 -69.6727       2 -70.1351       3 -70.2801       4 -70.2921       5 -70.2914
       6 -70.3009       7 -70.1534       8 -69.8111       9 -36.8393      10 -36.8021

 E-fermi :   0.8030     XC(G=0):  -6.6258     alpha+bet : -5.9229

 Fermi energy:         0.8029837772

[...]

 k-point     4 :       0.3333    0.3333    0.0000
  band No.  band energies     occupation
      1      -5.4405      1.00000
      2      -4.7607      1.00000
      3      -4.0355      1.00000
      4      -3.4913      1.00000
      5      -3.4086      1.00000
      6      -3.1315      1.00000
      7      -3.0755      1.00000
      8      -2.9560      1.00000
      9      -2.9356      1.00000
     10      -2.7720      1.00000
     11      -2.7521      1.00000
     12      -2.5217      1.00000
     13      -2.4572      1.00000
     14      -2.3438      1.00000
     15      -2.2701      1.00000
     16      -2.2330      1.00000
     17      -2.1830      1.00000
     18      -2.1193      1.00000
     19      -1.9946      1.00000
     20      -1.9224      1.00000
     21      -1.9087      1.00000
     22      -1.8807      1.00000
     23      -1.8421      1.00000
     24      -1.7207      1.00000
     25      -1.6258      1.00000
     26      -1.5000      1.00000
     27      -1.4800      1.00000
     28      -1.2253      1.00000
     29      -1.1701      1.00000
     30      -1.1521      1.00000
     31      -1.0712      1.00000
     32      -1.0329      1.00000
     33      -0.9576      1.00000
     34      -0.9372      1.00000
     35      -0.8251      1.00000
     36      -0.7368      1.00000
     37      -0.7026      1.00000
     38      -0.6564      1.00000
     39      -0.6282      1.00000
     40      -0.5705      1.00000
     41      -0.5270      1.00000
     42      -0.4801      1.00000
     43      -0.1355      1.00000
     44       0.7231      0.81004
     45       1.7631     -0.00000
     46       2.1862     -0.00000
     47       2.7242     -0.00000
     48       4.0279     -0.00000
     49       4.1297     -0.00000
     50       5.5531     -0.00000
     51       5.7348     -0.00000
     52       6.1334     -0.00000
     53       6.7549      0.00000
     54       7.0385      0.00000
     55       7.9046      0.00000
     56       8.0358      0.00000
     57       8.3068      0.00000
     58       8.9905      0.00000
     59       9.4067      0.00000
     60       9.7250      0.00000
 Fermi energy:         0.8029837772

 spin component 2

[...]

 k-point     4 :       0.3333    0.3333    0.0000
  band No.  band energies     occupation
      1      -5.4405      1.00000
      2      -4.7607      1.00000
      3      -4.0355      1.00000
      4      -3.4913      1.00000
      5      -3.4086      1.00000
      6      -3.1315      1.00000
      7      -3.0755      1.00000
      8      -2.9560      1.00000
      9      -2.9356      1.00000
     10      -2.7720      1.00000
     11      -2.7521      1.00000
     12      -2.5217      1.00000
     13      -2.4572      1.00000
     14      -2.3438      1.00000
     15      -2.2701      1.00000
     16      -2.2330      1.00000
     17      -2.1830      1.00000
     18      -2.1193      1.00000
     19      -1.9946      1.00000
     20      -1.9224      1.00000
     21      -1.9087      1.00000
     22      -1.8807      1.00000
     23      -1.8421      1.00000
     24      -1.7207      1.00000
     25      -1.6258      1.00000
     26      -1.5000      1.00000
     27      -1.4800      1.00000
     28      -1.2253      1.00000
     29      -1.1701      1.00000
     30      -1.1521      1.00000
     31      -1.0712      1.00000
     32      -1.0329      1.00000
     33      -0.9576      1.00000
     34      -0.9372      1.00000
     35      -0.8251      1.00000
     36      -0.7368      1.00000
     37      -0.7026      1.00000
     38      -0.6564      1.00000
     39      -0.6282      1.00000
     40      -0.5705      1.00000
     41      -0.5270      1.00000
     42      -0.4801      1.00000
     43      -0.1355      1.00000
     44       0.7231      0.81004
     45       1.7631     -0.00000
     46       2.1862     -0.00000
     47       2.7242     -0.00000
     48       4.0279     -0.00000
     49       4.1297     -0.00000
     50       5.5531     -0.00000
     51       5.7348     -0.00000
     52       6.1334     -0.00000
     53       6.7549      0.00000
     54       7.0385      0.00000
     55       7.9046      0.00000
     56       8.0358      0.00000
     57       8.3068      0.00000
     58       8.9905      0.00000
     59       9.4067      0.00000
     60       9.7250      0.00000

[...]

 soft charge-density along one line, spin component           2
         0         1         2         3         4         5         6         7         8         9
 total charge-density along one line

------------------------ aborting loop because EDIFF is reached ----------------------------------------

         DFTD3 V3.0 Rev 1
 Edisp (eV)   -3.17458

 E6    (eV) :    -1.3009
 E8    (eV) :    -1.8737
 % E8        : 59.02

  FORCE on cell =-STRESS in cart. coord.  units (eV):
  Direction    XX          YY          ZZ          XY          YZ          ZX
  Alpha Z   216.17040   216.17040   216.17040
  Ewald   47808.86482 47967.88394-53651.38935     0.00000    -0.00000     0.00000
  Hartree 50893.79671 51013.22808-49051.12670    -0.00000    -0.00000    -0.00000
  E(xc)    -520.42522  -520.23398  -520.49351    -0.00000     0.00000    -0.00000
  Local  -99714.14674************101697.29372    -0.00000     0.00000    -0.00000
  n-local  -179.58883  -175.17796  -180.31431     6.76696     0.00000     0.00000
  augment   755.47571   758.64391   757.69456     0.00000     0.00000    -0.00000
  Kinetic   738.68840   740.00109   734.53132     6.58346     0.00000    -0.00000
  Fock        0.00000     0.00000     0.00000     0.00000     0.00000     0.00000
  vdW        -3.87647    -3.89121    -2.82310    -0.00000     0.00000    -0.00000
  Total      -5.04122    -4.55177    -0.45697     0.00000     0.00000     0.00000
  in kB     -36.14347   -32.63435    -3.27627     0.00000     0.00000     0.00000

 VOLUME and BASIS-vectors are now :
  energy-cutoff  :      400.00
  volume of cell :      223.47
      direct lattice vectors                 reciprocal lattice vectors
     3.630000114  0.000000000  0.000000000     0.275482085  0.000000000  0.000000000
     0.000000000  2.566797733  0.000000000     0.000000000  0.389590495  0.000000000
     0.000000000  0.000000000 23.983791351     0.000000000  0.000000000  0.041694826

  length of vectors
     3.630000114  2.566797733 23.983791351     0.275482085  0.389590495  0.041694826

 FORCES acting on ions
    electron-ion (+dipol)            ewald-force                    non-local-force                 convergence-correction
   -.364E-13 0.147E-11 0.459E+04   -.746E-07 0.321E-07 -.458E+04   0.000E+00 0.000E+00 -.617E+01   0.641E-10 -.298E-10 0.686E-01
   0.737E-06 -.131E-05 0.351E+04   0.134E-06 -.569E-07 -.352E+04   0.000E+00 0.000E+00 0.153E+01   -.212E-10 0.253E-10 -.160E-01
   -.513E-13 0.984E-12 0.208E+04   -.124E-06 0.519E-07 -.208E+04   0.000E+00 0.000E+00 -.101E+01   -.574E-11 0.345E-11 0.304E-01
   0.753E-06 -.132E-05 0.771E+03   0.128E-06 -.536E-07 -.771E+03   0.000E+00 0.000E+00 0.312E+00   -.101E-10 0.450E-11 0.782E-02
   -.677E-13 0.171E-11 -.582E+03   -.128E-06 0.534E-07 0.582E+03   0.000E+00 0.000E+00 -.139E+00   0.559E-10 -.285E-10 0.228E-02
   0.760E-06 -.132E-05 -.189E+04   0.124E-06 -.520E-07 0.189E+04   0.000E+00 0.000E+00 0.117E+01   0.344E-10 -.209E-10 -.414E-01
   -.540E-13 0.156E-11 -.333E+04   -.135E-06 0.571E-07 0.333E+04   0.000E+00 0.000E+00 -.152E+01   -.167E-09 0.766E-10 0.729E-01
   0.805E-06 -.134E-05 -.439E+04   0.809E-07 -.301E-07 0.439E+04   0.000E+00 0.000E+00 0.638E+01   0.134E-09 -.151E-09 0.112E+00
   0.555E-07 -.404E-08 -.387E+03   -.435E-08 -.177E-08 0.383E+03   0.000E+00 0.000E+00 0.444E+01   -.415E-11 0.258E-11 -.136E-01
   0.500E-07 -.378E-08 -.372E+03   -.101E-08 -.232E-09 0.377E+03   0.000E+00 0.000E+00 -.471E+01   -.105E-10 0.113E-11 -.675E-02
   0.316E-05 -.531E-05 -.449E+00   0.318E-13 0.674E-13 -.250E-11   0.000E+00 0.000E+00 0.272E+00   0.690E-10 -.117E-09 0.216E+00

 POSITION                                       TOTAL-FORCE (eV/Angst)
      0.00000      0.00000     -0.01594         0.000000      0.000000     -0.025813
      1.81500      1.28340      1.11664         0.000000      0.000000      0.017717
      0.00000      0.00000      2.42159         0.000000      0.000000      0.002345
      1.81500      1.28340      3.67203         0.000000      0.000000      0.006984
      0.00000      0.00000      4.93899         0.000000      0.000000     -0.001795
      1.81500      1.28340      6.19402         0.000000      0.000000      0.010314
      0.00000      0.00000      7.49226         0.000000      0.000000     -0.006811
      1.81500      1.28340      8.62577         0.000000      0.000000     -0.026123
      1.81500      1.28340     10.65253         0.000000      0.000000      0.026135
      1.81500      1.28340     11.41833         0.000000      0.000000     -0.002954
    total drift:                                0.000003     -0.000005      0.039041

  FREE ENERGIE OF THE ION-ELECTRON SYSTEM (eV)
  free  energy   TOTEN  =       -38.54264409 eV

  energy  without entropy=      -38.53635625  energy(sigma->0) =      -38.54054815

 d Force = 0.8017124E-04[-0.373E-04, 0.198E-03]  d Energy = 0.1698271E-03-0.897E-04
 d Force = 0.8624476E+00[ 0.860E+00, 0.865E+00]  d Ewald  = 0.8624471E+00 0.506E-06

 stress matrix after NEB project (eV)
     -5.04122      0.00000      0.00000
      0.00000     -4.55177      0.00000
      0.00000      0.00000     -0.45697
  FORCES: max atom, RMS     0.026135    0.016014
  FORCE total and by dimension    0.050642    0.026135
  Stress total and by dimension    6.807445    5.041217
 Conjugate gradient step on ions:
 trial-energy change:   -0.000170  1 .order   -0.000080   -0.000198    0.000037
  (g-gl).g = 0.361E-03      g.g   = 0.354E-03  gl.gl    = 0.285E-03
 g(Force)  = 0.354E-03   g(Stress)= 0.000E+00 ortho     =-0.208E-04
 gamma     =   1.26839
 trial     =   0.60355
 opt step  =   0.50764  (harmonic =   0.50764) maximal distance =0.00218939
 next E    =   -38.542557   (d E  =  -0.00008)

 reached required accuracy - stopping structural energy minimisation