 vasp.6.3.2 27Jun22 (build Aug 17 2022 15:43:34) complex

 executed on           tv2STDVTST date 2025.01.17  14:24:16

 INCAR:
   ISTART = 0
   ICHARG = 2
   IPIPOL = 3
   IVDW = 11
   IDIPOL = 3
   IVDW = 11
   ISPIN = 2
   ENCUT = 400
   PREC = Normal
   EDIFF = 2E-04
   GGA = PE
   ISMEAR = 1
   SIGMA = 0.2
   LREAL = .FALSE.
   ISYM = 1
   NSW = 800
   IBRION = 2
   POTIM = 0.5
   ISIF = 2
   EDIFFG = -.03
   NPAR = 4
   LWAVE = .FALSE.
   LCHARG = .FALSE.

 POTCAR:    PAW_PBE Cu 22Jun2005
|           W    W    AA    RRRRR   N    N  II  N    N   GGGG   !!!           |
|           W    W   A  A   R    R  NN   N  II  NN   N  G    G  !!!           |
|           W    W  A    A  R    R  N N  N  II  N N  N  G       !!!           |
|           W WW W  AAAAAA  RRRRR   N  N N  II  N  N N  G  GGG   !            |
|           WW  WW  A    A  R   R   N   NN  II  N   NN  G    G                |
|           W    W  A    A  R    R  N    N  II  N    N   GGGG   !!!           |
|     You use a magnetic or noncollinear calculation, but did not specify     |
|     the initial magnetic moment with the MAGMOM tag. Note that a            |
|     default of 1 will be used for all atoms. This ferromagnetic setup       |
|     may break the symmetry of the crystal, in particular it may rule        |
|     out finding an antiferromagnetic solution. Thence, we recommend         |
|     setting the initial magnetic moment manually or verifying carefully     |
|     that this magnetic setup is desired.                                    |

   TITEL  = PAW_PBE Cu 22Jun2005
   POMASS =   63.546; ZVAL   =   11.000    mass and valenz
   ENMAX  =  295.446; ENMIN  =  221.585 eV

  PAW_PBE Cu 22Jun2005                  :

 POSCAR: FCC Cu
  positions in cartesian coordinates
  velocities in cartesian coordinates
 exchange correlation table for  LEXCH =        8
   RHO(1)=    0.500       N(1)  =     2000
   RHO(2)=  100.500       N(2)  =     4000

 VTST: version 4.2, (08/11/21)

 CHAIN: initializing optimizer

 OPT: Using VASP Conjugate-Gradient optimizer
 CHAIN: Read ICHAIN            0

 POSCAR: FCC Cu
  positions in cartesian coordinates
  velocities in cartesian coordinates

 ion  position               nearest neighbor table
   1  0.000  0.000  0.000-   7 2.57   5 2.57   6 2.57   4 2.57   3 2.57   2 2.57   2 2.57   3 2.57
                             4 2.57
   2  0.000  0.500  0.000-   5 2.57   8 2.57   6 2.57   3 2.57   4 2.57   1 2.57   1 2.57   4 2.57
                             3 2.57
   3  0.500  0.000  0.000-   5 2.57   7 2.57   8 2.57   2 2.57   1 2.57   4 2.57   4 2.57   1 2.57
                             2 2.57
   4  0.500  0.500  0.000-   6 2.57   7 2.57   8 2.57   1 2.57   2 2.57   3 2.57   3 2.57   2 2.57
                             1 2.57
   5  0.167  0.167  0.071-   9 2.57   3 2.57   2 2.57   1 2.57  10 2.57  11 2.57   8 2.57   7 2.57
                             6 2.57   6 2.57   7 2.57   8 2.57
   6  0.167  0.667  0.071-   4 2.57  10 2.57   9 2.57   2 2.57   1 2.57  12 2.57   7 2.57   8 2.57
                             5 2.57   5 2.57   8 2.57   7 2.57
   7  0.667  0.167  0.071-  11 2.57   4 2.57   1 2.57   9 2.57   3 2.57  12 2.57   6 2.57   5 2.57
                             8 2.57   8 2.57   5 2.57   6 2.57
   8  0.667  0.667  0.071-  12 2.57  11 2.57   2 2.57   4 2.57  10 2.57   3 2.57   5 2.57   6 2.57
                             7 2.57   7 2.57   6 2.57   5 2.57
   9  0.333  0.333  0.141-   5 2.57  14 2.57   6 2.57  15 2.57   7 2.57  16 2.57  12 2.57  11 2.57
                            10 2.57  10 2.57  11 2.57  12 2.57
  10  0.333  0.833  0.141-   6 2.57  16 2.57  15 2.57   8 2.57  13 2.57   5 2.57  11 2.57  12 2.57
                             9 2.57   9 2.57  12 2.57  11 2.57
  11  0.833  0.333  0.141-   7 2.57  16 2.57   8 2.57  13 2.57   5 2.57  14 2.57  10 2.57   9 2.57
                            12 2.57  12 2.57   9 2.57  10 2.57
  12  0.833  0.833  0.141-   8 2.57  14 2.57  15 2.57   7 2.57  13 2.57   6 2.57   9 2.57  10 2.57
                            11 2.57  11 2.57  10 2.57   9 2.57
  13  0.000  0.000  0.212-  11 2.57  19 2.57  17 2.57  10 2.57  18 2.57  12 2.57  16 2.57  15 2.57
                            14 2.57  14 2.57  15 2.57  16 2.57
  14  0.000  0.500  0.212-   9 2.57  17 2.57  12 2.57  20 2.57  18 2.57  11 2.57  15 2.57  16 2.57
                            13 2.57  13 2.57  16 2.57  15 2.57
  15  0.500  0.000  0.212-  17 2.57   9 2.57  10 2.57  19 2.57  12 2.57  20 2.57  14 2.57  13 2.57
                            16 2.57  16 2.57  13 2.57  14 2.57
  16  0.500  0.500  0.212-  18 2.57  11 2.57  19 2.57  10 2.57  20 2.57   9 2.57  13 2.57  14 2.57
                            15 2.57  15 2.57  14 2.57  13 2.57
  17  0.167  0.167  0.283-  21 2.57  15 2.57  14 2.57  13 2.57  22 2.57  23 2.57  20 2.57  19 2.57
                            18 2.57  18 2.57  19 2.57  20 2.57
  18  0.167  0.667  0.283-  16 2.57  22 2.57  21 2.57  14 2.57  13 2.57  24 2.57  19 2.57  20 2.57
                            17 2.57  17 2.57  20 2.57  19 2.57
  19  0.667  0.167  0.283-  23 2.57  16 2.57  13 2.57  21 2.57  15 2.57  24 2.57  18 2.57  17 2.57
                            20 2.57  20 2.57  17 2.57  18 2.57
  20  0.667  0.667  0.283-  24 2.57  23 2.57  14 2.57  16 2.57  22 2.57  15 2.57  17 2.57  18 2.57
                            19 2.57  19 2.57  18 2.57  17 2.57
  21  0.333  0.333  0.353-  17 2.57  18 2.57  19 2.57  26 2.57  27 2.57  28 2.57  24 2.57  23 2.57
                            22 2.57  22 2.57  23 2.57  24 2.57
  22  0.333  0.833  0.353-  18 2.57  20 2.57  17 2.57  28 2.57  27 2.57  25 2.57  23 2.57  24 2.57
                            21 2.57  21 2.57  24 2.57  23 2.57
  23  0.833  0.333  0.353-  19 2.57  20 2.57  17 2.57  28 2.57  25 2.57  26 2.57  22 2.57  21 2.57
                            24 2.57  24 2.57  21 2.57  22 2.57
  24  0.833  0.833  0.353-  20 2.57  19 2.57  18 2.57  26 2.57  27 2.57  25 2.57  21 2.57  22 2.57
                            23 2.57  23 2.57  22 2.57  21 2.57
  25  0.000  0.000  0.424-  23 2.57  31 2.57  29 2.57  22 2.57  30 2.57  24 2.57  28 2.57  27 2.57
                            26 2.57  26 2.57  27 2.57  28 2.57
  26  0.000  0.500  0.424-  21 2.57  24 2.57  29 2.57  32 2.57  30 2.57  23 2.57  27 2.57  28 2.57
                            25 2.57  25 2.57  28 2.57  27 2.57
  27  0.500  0.000  0.424-  29 2.57  21 2.57  22 2.57  31 2.57  24 2.57  32 2.57  26 2.57  25 2.57
                            28 2.57  28 2.57  25 2.57  26 2.57
  28  0.500  0.500  0.424-  23 2.57  30 2.57  22 2.57  31 2.57  32 2.57  21 2.57  25 2.57  26 2.57
                            27 2.57  27 2.57  26 2.57  25 2.57
  29  0.167  0.167  0.494-  27 2.57  26 2.57  25 2.57  32 2.57  31 2.57  30 2.57  30 2.57  31 2.57
                            32 2.57
  30  0.167  0.667  0.494-  28 2.57  26 2.57  25 2.57  31 2.57  32 2.57  29 2.57  29 2.57  32 2.57
                            31 2.57
  31  0.667  0.167  0.494-  28 2.57  25 2.57  27 2.57  30 2.57  29 2.57  32 2.57  32 2.57  29 2.57
                            30 2.57
  32  0.667  0.667  0.494-  26 2.57  28 2.57  27 2.57  29 2.57  30 2.57  31 2.57  31 2.57  30 2.57
                            29 2.57

  LATTYP: Found a hexagonal cell.
 ALAT       =     5.1335954666
 C/A-ratio  =     5.7796667822

  Lattice vectors:

 A1 = (  -2.5667977333,  -4.4458240868,   0.0000000000)
 A2 = (   5.1335954666,   0.0000000000,   0.0000000000)
 A3 = (   0.0000000000,   0.0000000000,  29.6704711914)

Analysis of symmetry for initial positions (statically):
 Subroutine PRICEL returns following result:

[...]

   4 primitive cells build up your supercell.

 Routine SETGRP: Setting up the symmetry group for a
 hexagonal supercell.

 Subroutine GETGRP returns: Found 12 space group operations
 (whereof  6 operations were pure point group operations)
 out of a pool of 24 trial point group operations.

The static configuration has the point symmetry C_3v.
 The point group associated with its full space group is D_3d.

Analysis of symmetry for dynamics (positions and initial velocities):
 Subroutine PRICEL returns following result:

[...]

The dynamic configuration has the point symmetry C_3v.
 The point group associated with its full space group is D_3d.

Analysis of constrained symmetry for selective dynamics:
 Subroutine PRICEL returns following result:

[...]

The constrained configuration has the point symmetry C_3v.

Analysis of structural, dynamic, and magnetic symmetry:
 Subroutine PRICEL returns following result:

  LATTYP: Found a hexagonal cell.
 ALAT       =     2.5667977331
 C/A-ratio  =    11.5593335652

  Lattice vectors:

 A1 = (  -1.2833988670,  -2.2229120430,   0.0000000000)
 A2 = (   2.5667977330,   0.0000000000,   0.0000000000)
 A3 = (   0.0000000000,   0.0000000000,  29.6704711914)

   4 primitive cells build up your supercell.

 Routine SETGRP: Setting up the symmetry group for a
 hexagonal supercell.

 Subroutine GETGRP returns: Found  6 space group operations
 (whereof  6 operations were pure point group operations)
 out of a pool of 24 trial point group operations.

The overall configuration has the point symmetry C_3v.

 Subroutine INISYM returns: Found  6 space group operations
 (whereof  6 operations are pure point group operations),
 and found     4 'primitive' translations

                                     Primitive cell

  volume of cell :     169.2928

  direct lattice vectors                    reciprocal lattice vectors
    -1.283398867 -2.222912043  0.000000000     0.000000000 -0.449860355  0.000000000
     2.566797733  0.000000000  0.000000000     0.389590495 -0.224930177  0.000000000
     0.000000000  0.000000000 29.670471191     0.000000000  0.000000000  0.033703543

  length of vectors
     2.566797733  2.566797733 29.670471191     0.449860355  0.449860355  0.033703543

  position of ions in fractional coordinates (direct lattice)
     0.000000000  0.000000000  0.000000000
     0.666666667  0.333333333  0.070635264
     0.333333333  0.666666667  0.141270528
     0.000000000  0.000000000  0.211905792
     0.666666667  0.333333333  0.282541056
     0.333333333  0.666666667  0.353176320
     0.000000000  0.000000000  0.423811585
     0.666666667  0.333333333  0.494446849

  ion indices of the primitive-cell ions
   primitive index   ion index
                 1           1
                 2           5
                 3          12
                 4          13
                 5          17
                 6          24
                 7          25
                 8          29

 KPOINTS: Auto-mesh

Automatic generation of k-mesh.
 Grid dimensions read from file:
 generate k-points for:    3    3    1

 Generating k-lattice:

  Cartesian coordinates                     Fractional coordinates (reciprocal lattice)
     0.064931749 -0.037488363  0.000000000     0.333333333  0.000000000  0.000000000
     0.000000000  0.074976726  0.000000000     0.000000000  0.333333333  0.000000000
     0.000000000  0.000000000  0.033703543     0.000000000  0.000000000  1.000000000

  Length of vectors
     0.074976726  0.074976726  0.033703543

  Shift w.r.t. Gamma in fractional coordinates (k-lattice)
[...]
  free energy    TOTEN  =      -114.46613959 eV

  energy without entropy =     -114.44888134  energy(sigma->0) =     -114.46038684

 average (electrostatic) potential at core
  the test charge radii are     0.9430
  (the norm of the test charge is              1.0000)
       1 -68.9945       2 -68.9945       3 -68.9945       4 -68.9945       5 -69.1467
       6 -69.1467       7 -69.1467       8 -69.1467       9 -69.1237      10 -69.1237
      11 -69.1237      12 -69.1237      13 -69.1553      14 -69.1553      15 -69.1553
      16 -69.1553      17 -69.1593      18 -69.1593      19 -69.1593      20 -69.1593
      21 -69.1351      22 -69.1351      23 -69.1351      24 -69.1351      25 -69.1689
      26 -69.1689      27 -69.1689      28 -69.1689      29 -69.0150      30 -69.0150
      31 -69.0150      32 -69.0150

 E-fermi :   2.0978     XC(G=0):  -7.6792     alpha+bet : -7.4920

 Fermi energy:         2.0977617004

[...]

 k-point     3 :      -0.3333    0.3333    0.0000
  band No.  band energies     occupation
      1      -4.7279      1.00000
      2      -4.7279      1.00000
      3      -4.7279      1.00000
      4      -4.3890      1.00000
      5      -4.3890      1.00000
      6      -4.3890      1.00000
      7      -3.8821      1.00000
      8      -3.8821      1.00000
      9      -3.8821      1.00000
     10      -3.2668      1.00000
     11      -3.2668      1.00000
     12      -3.2668      1.00000
     13      -2.6642      1.00000
     14      -2.6642      1.00000
     15      -2.6642      1.00000
     16      -2.2013      1.00000
     17      -2.2013      1.00000
     18      -2.2013      1.00000
     19      -2.0004      1.00000
     20      -1.9790      1.00000
     21      -1.9754      1.00000
     22      -1.9544      1.00000
     23      -1.9544      1.00000
     24      -1.9544      1.00000
     25      -1.9317      1.00000
     26      -1.8952      1.00000
     27      -1.8732      1.00000
     28      -1.8377      1.00000
     29      -1.8371      1.00000
     30      -1.8349      1.00000
     31      -1.8349      1.00000
     32      -1.8349      1.00000
     33      -1.8309      1.00000
     34      -1.8182      1.00000
     35      -1.8083      1.00000
     36      -1.7496      1.00000
     37      -1.7214      1.00000
     38      -1.7214      1.00000
     39      -1.7214      1.00000
     40      -1.6943      1.00000
     41      -1.6943      1.00000
     42      -1.6943      1.00000
     43      -1.6795      1.00000
     44      -1.6193      1.00000
     45      -1.6193      1.00000
     46      -1.6193      1.00000
     47      -1.5400      1.00000
     48      -1.5246      1.00000
     49      -1.5246      1.00000
     50      -1.5246      1.00000
     51      -1.4814      1.00000
     52      -1.4323      1.00000
     53      -1.4323      1.00000
     54      -1.4323      1.00000
     55      -1.3849      1.00000
     56      -1.3849      1.00000
     57      -1.3849      1.00000
     58      -1.3022      1.00000
     59      -1.3022      1.00000
     60      -1.3022      1.00000
[...]
    214       9.8593      0.00000
    215       9.9794      0.00000
    216       9.9794      0.00000
    217       9.9794      0.00000
    218      11.2621      0.00000
    219      11.2880      0.00000
    220      11.4725      0.00000
    221      11.4725      0.00000
    222      11.4725      0.00000
    223      11.5585      0.00000
    224      11.5669      0.00000
    225      11.5669      0.00000
    226      11.5669      0.00000
    227      12.4442      0.00000
    228      12.4654      0.00000
 Fermi energy:         2.0977617004

 spin component 2

[...]

 k-point     3 :      -0.3333    0.3333    0.0000
  band No.  band energies     occupation
      1      -4.7279      1.00000
      2      -4.7279      1.00000
      3      -4.7279      1.00000
      4      -4.3890      1.00000
      5      -4.3890      1.00000
      6      -4.3890      1.00000
      7      -3.8821      1.00000
      8      -3.8821      1.00000
      9      -3.8821      1.00000
     10      -3.2668      1.00000
     11      -3.2668      1.00000
     12      -3.2668      1.00000
     13      -2.6642      1.00000
     14      -2.6642      1.00000
     15      -2.6642      1.00000
     16      -2.2013      1.00000
     17      -2.2013      1.00000
     18      -2.2013      1.00000
     19      -2.0004      1.00000
     20      -1.9790      1.00000
     21      -1.9754      1.00000
     22      -1.9544      1.00000
     23      -1.9544      1.00000
     24      -1.9544      1.00000
     25      -1.9317      1.00000
     26      -1.8952      1.00000
     27      -1.8732      1.00000
     28      -1.8377      1.00000
     29      -1.8371      1.00000
     30      -1.8349      1.00000
     31      -1.8349      1.00000
     32      -1.8349      1.00000
     33      -1.8309      1.00000
     34      -1.8182      1.00000
     35      -1.8083      1.00000
     36      -1.7496      1.00000
     37      -1.7214      1.00000
     38      -1.7214      1.00000
     39      -1.7214      1.00000
     40      -1.6943      1.00000
     41      -1.6943      1.00000
     42      -1.6943      1.00000
     43      -1.6795      1.00000
     44      -1.6193      1.00000
     45      -1.6193      1.00000
     46      -1.6193      1.00000
     47      -1.5400      1.00000
     48      -1.5246      1.00000
     49      -1.5246      1.00000
     50      -1.5246      1.00000
     51      -1.4814      1.00000
     52      -1.4323      1.00000
     53      -1.4323      1.00000
     54      -1.4323      1.00000
     55      -1.3849      1.00000
     56      -1.3849      1.00000
     57      -1.3849      1.00000
     58      -1.3022      1.00000
     59      -1.3022      1.00000
     60      -1.3022      1.00000
[...]
    214       9.8593      0.00000
    215       9.9793      0.00000
    216       9.9793      0.00000
    217       9.9793      0.00000
    218      11.2621      0.00000
    219      11.2880      0.00000
    220      11.4725      0.00000
    221      11.4725      0.00000
    222      11.4725      0.00000
    223      11.5585      0.00000
    224      11.5668      0.00000
    225      11.5668      0.00000
    226      11.5668      0.00000
    227      12.4442      0.00000
    228      12.4654      0.00000

[...]

 soft charge-density along one line, spin component           2
         0         1         2         3         4         5         6         7         8         9
 total charge-density along one line

------------------------ aborting loop because EDIFF is reached ----------------------------------------

 DIPCOR: dipole corrections for dipol
 direction  3 min pos   227,
 dipolmoment           0.000000      0.000000     -0.003292 electrons x Angstroem
 Tr[quadrupol]     -1669.836000

 energy correction for charged system         0.000000 eV
 dipol+quadrupol energy correction            0.000001 eV
 added-field ion interaction          0.000000 eV  (added to PSCEN)

  *************** adding dipol energy to TOTEN NOW ****************

         DFTD3 V3.0 Rev 1
 Edisp (eV)  -13.81476

 E6    (eV) :    -5.7105
 E8    (eV) :    -8.1043
 % E8        : 58.66

  FORCE on cell =-STRESS in cart. coord.  units (eV):
  Direction    XX          YY          ZZ          XY          YZ          ZX
  Alpha Z  1105.89481  1105.89481  1105.89481
  Ewald  241351.30894241351.30894************    -0.00000     0.00000    -0.00000
  Hartree253996.76371253996.76371************     0.00000    -0.00000    -0.00000
  E(xc)   -2057.53534 -2057.53474 -2059.41500    -0.00051     0.00001     0.00002
  Local  ************************507272.25260     0.01599    -0.00000    -0.00000
  n-local  -668.10578  -685.75333  -677.48699   -15.28173     0.63021    -1.07108
  augment  3031.40011  3031.41773  3034.78527    -0.01526     0.00009     0.00015
  Kinetic  2865.64852  2879.54969  2881.35293    12.04017    -3.03164     5.25083
  Fock        0.00000     0.00000     0.00000     0.00000     0.00000     0.00000
  vdW       -16.67879   -16.67879   -14.20496     0.00000     0.00000    -0.00000
  Total     -14.70617   -14.70617    -3.41537    -0.00000     0.00000     0.00000
  in kB     -34.79459   -34.79459    -8.08072    -0.00000     0.00000     0.00000

 VOLUME and BASIS-vectors are now :
  energy-cutoff  :      400.00
  volume of cell :      677.17
      direct lattice vectors                 reciprocal lattice vectors
     5.133595467  0.000000000  0.000000000     0.194795248 -0.112465089  0.000000000
     2.566797733  4.445824087  0.000000000     0.000000000  0.224930177  0.000000000
     0.000000000  0.000000000 29.670471191     0.000000000  0.000000000  0.033703543

  length of vectors
     5.133595467  5.133595467 29.670471191     0.224930177  0.224930177  0.033703543

 FORCES acting on ions
    electron-ion (+dipol)            ewald-force                    non-local-force                 convergence-correction
   -.450E-05 -.260E-05 0.603E+04   -.127E-06 -.190E-06 -.603E+04   -.347E-17 0.000E+00 -.171E+01   -.151E-07 -.874E-08 0.671E+00
   -.583E-05 -.107E-05 0.603E+04   -.167E-06 0.344E-06 -.603E+04   -.347E-17 0.694E-17 -.171E+01   -.153E-07 -.855E-08 0.671E+00
   -.336E-05 -.260E-05 0.603E+04   0.182E-06 -.349E-06 -.603E+04   -.347E-17 0.104E-16 -.171E+01   -.150E-07 -.873E-08 0.671E+00
   -.469E-05 -.107E-05 0.603E+04   0.142E-06 0.185E-06 -.603E+04   0.520E-17 -.347E-17 -.171E+01   -.152E-07 -.854E-08 0.671E+00
   0.718E-05 0.541E-05 0.437E+04   -.187E-06 -.213E-06 -.437E+04   0.867E-18 -.347E-17 -.134E+01   0.531E-07 0.309E-07 -.460E+00
   0.586E-05 0.692E-05 0.437E+04   -.214E-06 0.402E-06 -.437E+04   0.104E-16 -.347E-17 -.134E+01   0.529E-07 0.313E-07 -.460E+00
   0.831E-05 0.541E-05 0.437E+04   0.165E-06 -.403E-06 -.437E+04   0.260E-17 -.347E-17 -.134E+01   0.534E-07 0.308E-07 -.460E+00
   0.699E-05 0.692E-05 0.437E+04   0.138E-06 0.212E-06 -.437E+04   -.520E-17 -.347E-17 -.134E+01   0.532E-07 0.312E-07 -.460E+00
   -.609E-05 -.317E-05 0.262E+04   -.872E-07 -.169E-06 -.262E+04   -.434E-18 0.434E-18 -.179E+00   0.148E-05 0.853E-06 -.147E+01
   -.741E-05 -.166E-05 0.262E+04   -.156E-06 0.325E-06 -.262E+04   -.434E-18 0.434E-18 -.179E+00   0.148E-05 0.853E-06 -.147E+01
   -.496E-05 -.317E-05 0.262E+04   0.206E-06 -.304E-06 -.262E+04   -.976E-18 -.108E-17 -.179E+00   0.148E-05 0.853E-06 -.147E+01
   -.628E-05 -.166E-05 0.262E+04   0.137E-06 0.190E-06 -.262E+04   -.141E-17 -.217E-18 -.179E+00   0.148E-05 0.853E-06 -.147E+01
   -.652E-06 -.377E-06 0.877E+03   -.110E-06 -.190E-06 -.875E+03   0.737E-17 0.260E-17 -.235E+00   -.118E-05 -.681E-06 -.221E+01
   -.197E-05 0.113E-05 0.877E+03   -.179E-06 0.304E-06 -.875E+03   0.260E-17 -.867E-18 -.235E+00   -.118E-05 -.681E-06 -.221E+01
   0.477E-06 -.377E-06 0.877E+03   0.182E-06 -.324E-06 -.875E+03   0.390E-17 -.434E-17 -.235E+00   -.118E-05 -.681E-06 -.221E+01
   -.841E-06 0.113E-05 0.877E+03   0.113E-06 0.169E-06 -.875E+03   0.867E-18 -.260E-17 -.235E+00   -.118E-05 -.681E-06 -.221E+01
   0.289E-05 0.293E-05 -.867E+03   -.191E-06 -.216E-06 0.868E+03   0.520E-17 0.130E-17 0.445E+00   -.128E-05 -.740E-06 -.232E+01
   0.157E-05 0.444E-05 -.867E+03   -.217E-06 0.409E-06 0.868E+03   0.737E-17 0.130E-17 0.445E+00   -.128E-05 -.740E-06 -.232E+01
   0.402E-05 0.293E-05 -.867E+03   0.166E-06 -.409E-06 0.868E+03   0.304E-17 -.434E-18 0.445E+00   -.128E-05 -.740E-06 -.232E+01
   0.270E-05 0.444E-05 -.867E+03   0.141E-06 0.216E-06 0.868E+03   0.434E-17 0.217E-17 0.445E+00   -.128E-05 -.740E-06 -.232E+01
   -.714E-05 -.377E-05 -.261E+04   -.864E-07 -.169E-06 0.261E+04   -.434E-18 0.867E-18 -.643E-01   0.141E-05 0.816E-06 -.174E+01
   -.846E-05 -.227E-05 -.261E+04   -.156E-06 0.323E-06 0.261E+04   -.867E-18 0.867E-18 -.643E-01   0.141E-05 0.815E-06 -.174E+01
   -.601E-05 -.377E-05 -.261E+04   0.205E-06 -.302E-06 0.261E+04   0.195E-17 0.000E+00 -.643E-01   0.141E-05 0.816E-06 -.174E+01
   -.733E-05 -.227E-05 -.261E+04   0.135E-06 0.189E-06 0.261E+04   0.651E-18 0.000E+00 -.643E-01   0.141E-05 0.815E-06 -.174E+01
   0.391E-05 0.226E-05 -.436E+04   -.110E-06 -.189E-06 0.436E+04   -.781E-17 0.520E-17 0.113E+01   0.744E-06 0.430E-06 -.631E+00
   0.259E-05 0.376E-05 -.436E+04   -.181E-06 0.302E-06 0.436E+04   0.000E+00 0.520E-17 0.113E+01   0.744E-06 0.429E-06 -.631E+00
   0.504E-05 0.226E-05 -.436E+04   0.181E-06 -.322E-06 0.436E+04   0.173E-17 0.867E-17 0.113E+01   0.744E-06 0.430E-06 -.631E+00
   0.372E-05 0.376E-05 -.436E+04   0.111E-06 0.169E-06 0.436E+04   -.867E-18 0.520E-17 0.113E+01   0.744E-06 0.429E-06 -.631E+00
   0.114E-04 0.786E-05 -.605E+04   -.146E-06 -.188E-06 0.605E+04   0.208E-16 0.694E-17 0.195E+01   -.754E-06 -.436E-06 0.418E+00
   0.101E-04 0.938E-05 -.605E+04   -.185E-06 0.356E-06 0.605E+04   0.139E-16 0.694E-17 0.195E+01   -.754E-06 -.436E-06 0.418E+00
   0.125E-04 0.786E-05 -.605E+04   0.169E-06 -.351E-06 0.605E+04   -.104E-16 0.694E-17 0.195E+01   -.755E-06 -.436E-06 0.418E+00
   0.112E-04 0.938E-05 -.605E+04   0.130E-06 0.194E-06 0.605E+04   -.347E-17 0.694E-17 0.195E+01   -.754E-06 -.436E-06 0.418E+00
   0.250E-04 0.584E-04 0.310E+02   0.348E-13 0.932E-13 -.273E-11   0.501E-16 0.525E-16 -.395E-01   0.182E-05 0.105E-05 -.310E+02

 POSITION                                       TOTAL-FORCE (eV/Angst)
      0.00000      0.00000      0.00000        -0.000000     -0.000000      0.143848
      1.28340      2.22291      0.00000        -0.000000     -0.000000      0.143848
      2.56680      0.00000      0.00000        -0.000000     -0.000000      0.143848
      3.85020      2.22291      0.00000        -0.000000      0.000000      0.143848
      1.28340      0.74097      2.09578         0.000000     -0.000000     -0.137449
      2.56680      2.96388      2.09578        -0.000000      0.000000     -0.137449
      3.85020      0.74097      2.09578        -0.000000      0.000000     -0.137449
      5.13360      2.96388      2.09578        -0.000000      0.000000     -0.137449
      2.56680      1.48194      4.10848        -0.000000     -0.000000     -0.021771
      3.85020      3.70485      4.10848        -0.000000     -0.000000     -0.021771
      5.13360      1.48194      4.10848         0.000000      0.000000     -0.021771
      6.41699      3.70485      4.10848        -0.000000      0.000000     -0.021771
     -0.00000     -0.00000      6.13212        -0.000000     -0.000000      0.015806
      1.28340      2.22291      6.13212        -0.000000     -0.000000      0.015806
      2.56680     -0.00000      6.13212        -0.000000     -0.000000      0.015806
      3.85020      2.22291      6.13212        -0.000000     -0.000000      0.015806
      1.28340      0.74097      8.15607        -0.000000     -0.000000      0.012653
      2.56680      2.96388      8.15607        -0.000000     -0.000000      0.012653
      3.85020      0.74097      8.15607        -0.000000     -0.000000      0.012653
      5.13360      2.96388      8.15607        -0.000000     -0.000000      0.012653
      2.56680      1.48194     10.18288         0.000000      0.000000     -0.005346
      3.85020      3.70485     10.18288         0.000000     -0.000000     -0.005346
      5.13360      1.48194     10.18288         0.000000      0.000000     -0.005346
      6.41699      3.70485     10.18288         0.000000     -0.000000     -0.005346
      0.00000      0.00000     12.19629        -0.000000      0.000000      0.007581
      1.28340      2.22291     12.19629        -0.000000      0.000000      0.007581
      2.56680      0.00000     12.19629        -0.000000      0.000000      0.007581
      3.85020      2.22291     12.19629        -0.000000     -0.000000      0.007581
      1.28340      0.74097     14.25799         0.000000     -0.000000     -0.015321
      2.56680      2.96388     14.25799         0.000000      0.000000     -0.015321
      3.85020      0.74097     14.25799         0.000000      0.000000     -0.015321
      5.13360      2.96388     14.25799         0.000000      0.000000     -0.015321
    total drift:                                0.000027      0.000059     -0.065434

  FREE ENERGIE OF THE ION-ELECTRON SYSTEM (eV)
  free  energy   TOTEN  =      -128.28089795 eV

  energy  without entropy=     -128.26363969  energy(sigma->0) =     -128.27514520

 d Force = 0.2612175E-03[-0.263E-03, 0.785E-03]  d Energy = 0.6762675E-03-0.415E-03
 d Force =-0.2684037E+02[-0.269E+02,-0.268E+02]  d Ewald  =-0.2684037E+02 0.851E-06

 stress matrix after NEB project (eV)
    -14.70617      0.00000      0.00000
     -0.00000    -14.70617     -0.00000
      0.00000      0.00000     -3.41537
  FORCES: max atom, RMS     0.021771    0.012271
  FORCE total and by dimension    0.069417    0.021771
  Stress total and by dimension   21.076230   14.706168

 reached required accuracy - stopping structural energy minimisation