 vasp.6.3.2 27Jun22 (build Aug 17 2022 15:43:34) complex

 executed on           tv2STDVTST date 2025.01.17  13:53:07

 INCAR:
   ISTART = 0
   ICHARG = 2
   IPIPOL = 3
   IVDW = 11
   IDIPOL = 3
   IVDW = 11
   ISPIN = 2
   ENCUT = 400
   PREC = Normal
   EDIFF = 2E-04
   GGA = PE
   ISMEAR = 1
   SIGMA = 0.2
   LREAL = .FALSE.
   ISYM = 1
   NSW = 800
   IBRION = 2
   POTIM = 0.5
   ISIF = 2
   EDIFFG = -.03
   NPAR = 4
   LWAVE = .FALSE.
   LCHARG = .FALSE.

 POTCAR:    PAW_PBE Cu 22Jun2005
|           W    W    AA    RRRRR   N    N  II  N    N   GGGG   !!!           |
|           W    W   A  A   R    R  NN   N  II  NN   N  G    G  !!!           |
|           W    W  A    A  R    R  N N  N  II  N N  N  G       !!!           |
|           W WW W  AAAAAA  RRRRR   N  N N  II  N  N N  G  GGG   !            |
|           WW  WW  A    A  R   R   N   NN  II  N   NN  G    G                |
|           W    W  A    A  R    R  N    N  II  N    N   GGGG   !!!           |
|     You use a magnetic or noncollinear calculation, but did not specify     |
|     the initial magnetic moment with the MAGMOM tag. Note that a            |
|     default of 1 will be used for all atoms. This ferromagnetic setup       |
|     may break the symmetry of the crystal, in particular it may rule        |
|     out finding an antiferromagnetic solution. Thence, we recommend         |
|     setting the initial magnetic moment manually or verifying carefully     |
|     that this magnetic setup is desired.                                    |

   TITEL  = PAW_PBE Cu 22Jun2005
   POMASS =   63.546; ZVAL   =   11.000    mass and valenz
   ENMAX  =  295.446; ENMIN  =  221.585 eV

  PAW_PBE Cu 22Jun2005                  :

 POSCAR: FCC Cu
  positions in cartesian coordinates
  velocities in cartesian coordinates
 exchange correlation table for  LEXCH =        8
   RHO(1)=    0.500       N(1)  =     2000
   RHO(2)=  100.500       N(2)  =     4000

 VTST: version 4.2, (08/11/21)

 CHAIN: initializing optimizer

 OPT: Using VASP Conjugate-Gradient optimizer
 CHAIN: Read ICHAIN            0

 POSCAR: FCC Cu
  positions in cartesian coordinates
  velocities in cartesian coordinates

 ion  position               nearest neighbor table
   1  0.000  0.000  0.000-   2 2.57   2 2.57   2 2.57
   2  0.333  0.333  0.076-   3 2.57   1 2.57   1 2.57   3 2.57   1 2.57   3 2.57
   3  0.667  0.667  0.152-   2 2.57   2 2.57   2 2.57   4 2.57   4 2.57   4 2.57
   4  0.000  0.000  0.228-   5 2.57   5 2.57   5 2.57   3 2.57   3 2.57   3 2.57
   5  0.333  0.333  0.304-   6 2.57   6 2.57   6 2.57   4 2.57   4 2.57   4 2.57
   6  0.667  0.667  0.380-   5 2.57   5 2.57   5 2.57   7 2.57   7 2.57   7 2.57
   7  0.000  0.000  0.456-   6 2.57   6 2.57   6 2.57

  LATTYP: Found a hexagonal cell.
 ALAT       =     2.5667977333
 C/A-ratio  =    10.7428368321

  Lattice vectors:

 A1 = (  -1.2833988667,  -2.2229120434,   0.0000000000)
 A2 = (   2.5667977333,   0.0000000000,   0.0000000000)
 A3 = (   0.0000000000,   0.0000000000,  27.5746892300)

Analysis of symmetry for initial positions (statically):
 Subroutine PRICEL returns:
 Original cell was already a primitive cell.

 Routine SETGRP: Setting up the symmetry group for a
 hexagonal supercell.

 Subroutine GETGRP returns: Found 12 space group operations
 (whereof  6 operations were pure point group operations)
 out of a pool of 24 trial point group operations.

The static configuration has the point symmetry C_3v.
 The point group associated with its full space group is D_3d.

Analysis of symmetry for dynamics (positions and initial velocities):
 Subroutine PRICEL returns:
 Original cell was already a primitive cell.

[...]

The dynamic configuration has the point symmetry C_3v.
 The point group associated with its full space group is D_3d.

Analysis of constrained symmetry for selective dynamics:
 Subroutine PRICEL returns:
 Original cell was already a primitive cell.

[...]

The constrained configuration has the point symmetry C_3v.

Analysis of structural, dynamic, and magnetic symmetry:
 Subroutine PRICEL returns:
 Original cell was already a primitive cell.

 Routine SETGRP: Setting up the symmetry group for a
 hexagonal supercell.

 Subroutine GETGRP returns: Found  6 space group operations
 (whereof  6 operations were pure point group operations)
 out of a pool of 24 trial point group operations.

The overall configuration has the point symmetry C_3v.

 Subroutine INISYM returns: Found  6 space group operations
 (whereof  6 operations are pure point group operations),
 and found     1 'primitive' translations

                                     Primitive cell

  volume of cell :     157.3347

  direct lattice vectors                    reciprocal lattice vectors
     2.566797733  0.000000000  0.000000000     0.389590495 -0.224930177  0.000000000
     1.283398867  2.222912043  0.000000000     0.000000000  0.449860355  0.000000000
     0.000000000  0.000000000 27.574689230     0.000000000  0.000000000  0.036265141

  length of vectors
     2.566797733  2.566797733 27.574689230     0.449860355  0.449860355  0.036265141

  position of ions in fractional coordinates (direct lattice)
     0.000000000  0.000000000  0.000000000
     0.333333333  0.333333333  0.076003814
     0.666666667  0.666666667  0.152007627
     0.000000000  0.000000000  0.228011441
     0.333333333  0.333333333  0.304015254
     0.666666667  0.666666667  0.380019068
     0.000000000  0.000000000  0.456022881

  ion indices of the primitive-cell ions
   primitive index   ion index
                 1           1
                 2           2
                 3           3
                 4           4
                 5           5
                 6           6
                 7           7

 KPOINTS: Auto-mesh

Automatic generation of k-mesh.
 Grid dimensions read from file:
 generate k-points for:    3    3    1

 Generating k-lattice:

  Cartesian coordinates                     Fractional coordinates (reciprocal lattice)
     0.129863498 -0.074976726  0.000000000     0.333333333  0.000000000  0.000000000
     0.000000000  0.149953452  0.000000000     0.000000000  0.333333333  0.000000000
     0.000000000  0.000000000  0.036265141     0.000000000  0.000000000  1.000000000

  Length of vectors
     0.149953452  0.149953452  0.036265141

  Shift w.r.t. Gamma in fractional coordinates (k-lattice)
     0.000000000  0.000000000  0.000000000

 Subroutine IBZKPT returns following result:

 Found      3 irreducible k-points:

 Following reciprocal coordinates:
            Coordinates               Weight
  0.000000  0.000000  0.000000      1.000000
  0.333333  0.000000  0.000000      6.000000
 -0.333333  0.333333  0.000000      2.000000

 Following cartesian coordinates:
            Coordinates               Weight
  0.000000  0.000000  0.000000      1.000000
  0.129863 -0.074977  0.000000      6.000000
 -0.129863  0.224930  0.000000      2.000000

 SYSTEM =  unknown system
 POSCAR =  FCC Cu

 Startparameter for this run:
   NWRITE =      2    write-flag & timer
   PREC   = normal    normal or accurate (medium, high low for compatibility)
   ISTART =      0    job   : 0-new  1-cont  2-samecut
   ICHARG =      2    charge: 1-file 2-atom 10-const
   ISPIN  =      2    spin polarized calculation?
   LNONCOLLINEAR =      F non collinear calculations
   LSORBIT =      F    spin-orbit coupling
   INIWAV =      1    electr: 0-lowe 1-rand  2-diag
   LASPH  =      F    aspherical Exc in radial PAW
 Electronic Relaxation 1
   ENCUT  =  400.0 eV  29.40 Ry    5.42 a.u.   4.19  4.19 44.97*2*pi/ulx,y,z
   ENINI  =  400.0     initial cutoff
   ENAUG  =  587.0 eV  augmentation charge cutoff
   NELM   =     60;   NELMIN=  2; NELMDL= -5     # of ELM steps
   EDIFF  = 0.2E-03   stopping-criterion for ELM
   LREAL  =      F    real-space projection
   NLSPLINE    = F    spline interpolate recip. space projectors
   LCOMPAT=      F    compatible to vasp.4.4
   GGA_COMPAT  = T    GGA compatible to vasp.4.4-vasp.4.6
   LMAXPAW     = -100 max onsite density
   LMAXMIX     =    2 max onsite mixed and CHGCAR
   VOSKOWN=      0    Vosko Wilk Nusair interpolation
   ROPT   =    0.00000
 Ionic relaxation
   EDIFFG = -.3E-01   stopping-criterion for IOM
   NSW    =    800    number of steps for IOM
   NBLOCK =      1;   KBLOCK =    800    inner block; outer block
   IBRION =      2    ionic relax: 0-MD 1-quasi-New 2-CG
   NFREE  =      1    steps in history (QN), initial steepest desc. (CG)
   ISIF   =      2    stress and relaxation
   IWAVPR =     11    prediction:  0-non 1-charg 2-wave 3-comb
   ISYM   =      1    0-nonsym 1-usesym 2-fastsym
   LCORR  =      T    Harris-Foulkes like correction to forces

   POTIM  = 0.5000    time-step for ionic-motion
   TEIN   =    0.0    initial temperature
   TEBEG  =    0.0;   TEEND  =   0.0 temperature during run
   SMASS  =  -3.00    Nose mass-parameter (am)
   estimated Nose-frequenzy (Omega)   =  0.10E-29 period in steps = 0.13E+47 mass=  -0.151E-27a.u.
   SCALEE = 1.0000    scale energy and forces
   NPACO  =    256;   APACO  = 10.0  distance and # of slots for P.C.
   PSTRESS=    0.0 pullay stress

  Mass of Ions in am
   POMASS =  63.55
  Ionic Valenz
   ZVAL   =  11.00
  Atomic Wigner-Seitz radii
  virtual crystal weights
   VCA    =   1.00
   NELECT =      77.0000    total number of electrons
   NUPDOWN=      -1.0000    fix difference up-down

 DOS related values:
   EMIN   =  10.00;   EMAX   =-10.00  energy-range for DOS
   EFERMI =   0.00
   ISMEAR =     1;   SIGMA  =   0.20  broadening in eV -4-tet -1-fermi 0-gaus

 Electronic relaxation 2 (details)
   IALGO  =     38    algorithm
   LDIAG  =      T    sub-space diagonalisation (order eigenvalues)
   LSUBROT=      F    optimize rotation matrix (better conditioning)
   TURBO    =      0    0=normal 1=particle mesh
   IRESTART =      0    0=no restart 2=restart with 2 vectors
   NREBOOT  =      0    no. of reboots
   NMIN     =      0    reboot dimension
   EREF     =   0.00    reference energy to select bands
   IMIX   =      4    mixing-type and parameters
     AMIX     =   0.40;   BMIX     =  1.00
     AMIX_MAG =   1.60;   BMIX_MAG =  1.00
     AMIN     =   0.10
     WC   =   100.;   INIMIX=   1;  MIXPRE=   1;  MAXMIX= -45

 Intra band minimization:
   WEIMIN = 0.0010     energy-eigenvalue tresh-hold
   EBREAK =  0.96E-06  absolut break condition
   DEPER  =   0.30     relativ break condition

   TIME   =   0.40     timestep for ELM

  volume/ion in A,a.u.               =      22.48       151.68
  Fermi-wavevector in a.u.,A,eV,Ry     =   1.290120  2.437974 22.645679  1.664410
  Thomas-Fermi vector in A             =   2.421971

 Write flags
   LWAVE        =      F    write WAVECAR
   LDOWNSAMPLE  =      F    k-point downsampling of WAVECAR
   LCHARG       =      F    write CHGCAR
   LVTOT        =      F    write LOCPOT, total local potential
   LVHAR        =      F    write LOCPOT, Hartree potential only
   LELF         =      F    write electronic localiz. function (ELF)
   LORBIT       =      0    0 simple, 1 ext, 2 COOP (PROOUT), +10 PAW based schemes

 Dipole corrections
   LMONO  =      F    monopole corrections only (constant potential shift)
[...]
   -.843E-06 -.206E-06 -.359E+04   0.209E-07 0.838E-08 0.359E+04   -.139E-16 -.139E-16 -.148E+01   0.347E-08 0.196E-08 0.138E-01
   0.231E-05 0.133E-05 -.538E+04   -.797E-08 -.587E-08 0.537E+04   0.000E+00 0.694E-17 0.283E+01   -.743E-08 -.429E-08 0.476E-01
   0.830E-05 0.781E-05 0.277E+00   0.620E-13 -.181E-13 0.000E+00   -.434E-16 -.693E-17 0.130E-01   0.197E-07 0.110E-07 -.280E+00

 POSITION                                       TOTAL-FORCE (eV/Angst)
      0.00000      0.00000      0.00000         0.000000     -0.000000      0.498533
      1.28340      0.74097      2.09578         0.000000      0.000000     -0.208669
      2.56680      1.48194      4.19156         0.000000      0.000000      0.074427
      0.00000      0.00000      6.28734         0.000000      0.000000      0.001742
      1.28340      0.74097      8.38313        -0.000000     -0.000000     -0.078533
      2.56680      1.48194     10.47891         0.000000      0.000000      0.209445
      0.00000      0.00000     12.57469        -0.000000      0.000000     -0.496944
    total drift:                                0.000008      0.000008      0.009316

  FREE ENERGIE OF THE ION-ELECTRON SYSTEM (eV)
  free  energy   TOTEN  =       -29.47424676 eV

  energy  without entropy=      -29.47721689  energy(sigma->0) =      -29.47523680

 stress matrix after NEB project (eV)
     -6.05819     -0.00000      0.00000
     -0.00000     -6.05819      0.00000
     -0.00000      0.00000     -5.10623
  FORCES: max atom, RMS     0.496944    0.207891
  FORCE total and by dimension    0.550028    0.496944
  Stress total and by dimension    9.973816    6.058193

[...]

         DFTD3 V3.0 Rev 1
 Edisp (eV)   -2.85340

[...]

 d Force = 0.1176713E-01[ 0.894E-02, 0.146E-01]  d Energy = 0.1177971E-01-0.126E-04
 d Force =-0.1060567E+03[-0.106E+03,-0.106E+03]  d Ewald  =-0.1060571E+03 0.372E-03

 stress matrix after NEB project (eV)
     -5.95990     -0.00000     -0.00000
     -0.00000     -5.95990     -0.00000
     -0.00000     -0.00000     -4.86043
  FORCES: max atom, RMS     0.353421    0.135422
  FORCE total and by dimension    0.358292    0.353421
  Stress total and by dimension    9.729566    5.959896
 Steepest descent step on ions:
 trial-energy change:   -0.011780  1 .order   -0.011767   -0.014595   -0.008939
  (g-gl).g = 0.146E-01      g.g   = 0.146E-01  gl.gl    = 0.000E+00
 g(Force)  = 0.146E-01   g(Stress)= 0.000E+00 ortho     = 0.000E+00
 gamma     =   0.00000
 trial     =   1.00000
 opt step  =   2.58065  (harmonic =   2.58065) maximal distance =0.02607535
 next E    =   -29.493079   (d E  =  -0.01883)

[...]

 d Force = 0.6543261E-02[-0.104E-02, 0.141E-01]  d Energy = 0.6117694E-02 0.426E-03
 d Force =-0.1688512E+03[-0.170E+03,-0.168E+03]  d Ewald  =-0.1688529E+03 0.167E-02

[...]

 stress matrix after NEB project (eV)
     -5.94364     -0.00000     -0.00000
     -0.00000     -5.94364      0.00000
     -0.00000      0.00000     -4.32183
  FORCES: max atom, RMS     0.290272    0.111696
  FORCE total and by dimension    0.295521    0.290272
  Stress total and by dimension    9.451559    5.943641
 Conjugate gradient step on ions:
 trial-energy change:   -0.005239  1 .order   -0.005721   -0.006416   -0.005025
  (g-gl).g = 0.580E-02      g.g   = 0.514E-02  gl.gl    = 0.146E-01
 g(Force)  = 0.514E-02   g(Stress)= 0.000E+00 ortho     =-0.660E-03
 gamma     =   0.39724
 trial     =   1.31613
 opt step  =   5.26452  (harmonic =   6.06760) maximal distance =0.01189368
 next E    =   -29.506935   (d E  =  -0.01479)

[...]

 stress matrix after NEB project (eV)
     -4.86751     -0.00000     -0.00000
     -0.00000     -4.86751      0.00000
      0.00000     -0.00000     -1.33378
  FORCES: max atom, RMS     0.119799    0.059080
  FORCE total and by dimension    0.156310    0.119799
  Stress total and by dimension    7.011727    4.867512
 Conjugate gradient step on ions:
 trial-energy change:   -0.003806  1 .order   -0.003660   -0.005118   -0.002202
  (g-gl).g = 0.483E-02      g.g   = 0.485E-02  gl.gl    = 0.956E-02
 g(Force)  = 0.485E-02   g(Stress)= 0.000E+00 ortho     =-0.507E-03
 gamma     =   0.50491
 trial     =   1.11331
 opt step  =   1.95409  (harmonic =   1.95409) maximal distance =0.00000000
 next E    =   -29.542817   (d E  =  -0.00449)

[...]

 d Force = 0.9043112E-03[ 0.146E-03, 0.166E-02]  d Energy = 0.9889680E-03-0.847E-04
 d Force =-0.8101531E+02[-0.811E+02,-0.809E+02]  d Ewald  =-0.8101535E+02 0.431E-04

[...]

 d Force =-0.1109274E-04[-0.230E-04, 0.796E-06]  d Energy =-0.1058857E-03 0.948E-04
 d Force = 0.1649388E+01[ 0.165E+01, 0.165E+01]  d Ewald  = 0.1649388E+01-0.415E-09

[...]

 d Force =-0.4822377E-05[-0.132E-04, 0.359E-05]  d Energy = 0.5192680E-04-0.567E-04
 d Force = 0.7971013E+00[ 0.797E+00, 0.797E+00]  d Ewald  = 0.7971013E+00-0.218E-09

[...]

 d Force = 0.3910093E-05[-0.259E-05, 0.104E-04]  d Energy =-0.3343151E-04 0.373E-04
 d Force =-0.6271371E+00[-0.627E+00,-0.627E+00]  d Ewald  =-0.6271371E+00 0.262E-09

[...]

 d Force =-0.2723931E-06[-0.184E-05, 0.129E-05]  d Energy =-0.1853710E-04 0.183E-04
 d Force = 0.3135698E+00[ 0.314E+00, 0.314E+00]  d Ewald  = 0.3135698E+00-0.124E-09

[...]

 stress matrix after NEB project (eV)
     -5.25788     -0.00000      0.00000
     -0.00000     -5.25788     -0.00000
      0.00000      0.00000     -1.63640
  FORCES: max atom, RMS     0.049019    0.026950
  FORCE total and by dimension    0.071304    0.049019
  Stress total and by dimension    7.613695    5.257877

[...]

 eigenvalue-minimisations  :   752
 total energy-change (2. order) :-0.2281095E-03  (-0.2569799E-03)
 number of electron      76.9999818 magnetization       0.0000061
 augmentation part       49.1146162 magnetization       0.0000032

 Broyden mixing:
  rms(total) = 0.37427E-02    rms(broyden)= 0.37393E-02
  rms(prec ) = 0.72369E-02
  weight for this iteration     100.00

 eigenvalues of (default mixing * dielectric matrix)
  average eigenvalue GAMMA=   0.3305
  0.3305

[...]

--------------------------------------- Iteration     22(   3)  ---------------------------------------

 eigenvalue-minimisations  :   392
 total energy-change (2. order) : 0.4620045E-04  (-0.1032693E-03)
 number of electron      76.9999818 magnetization       0.0000061
 augmentation part       49.1146162 magnetization       0.0000032

 Free energy of the ion-electron system (eV)
  alpha Z        PSCENC =       227.76330227
  Ewald energy   TEWEN  =     43722.36128288
  -Hartree energ DENC   =    -53173.16790217
  -exchange      EXHF   =         0.00000000
  -V(xc)+E(xc)   XCENC  =       312.41365636
  PAW double counting   =      9202.64492021    -9956.54661868
  entropy T*S    EENTRO =        -0.00012885
  eigenvalues    EBANDS =       -98.78402975
  atomic energy  EATOM  =      9736.70348140
  Solvation  Ediel_sol  =         0.00000000
  free energy    TOTEN  =       -26.61203635 eV

  energy without entropy =      -26.61190749  energy(sigma->0) =      -26.61199339

 average (electrostatic) potential at core
  the test charge radii are     0.9430
  (the norm of the test charge is              1.0000)
       1 -68.8859       2 -69.6161       3 -69.8416       4 -69.7936       5 -69.8452
       6 -69.6907       7 -69.0135

 E-fermi :   1.4797     XC(G=0):  -7.3283     alpha+bet : -7.0538

 Fermi energy:         1.4796546543

[...]

 k-point     3 :      -0.3333    0.3333    0.0000
  band No.  band energies     occupation
      1      -2.6371      1.00000
      2      -2.6063      1.00000
      3      -2.5980      1.00000
      4      -2.5042      1.00000
      5      -2.5017      1.00000
      6      -2.4434      1.00000
      7      -2.4122      1.00000
      8      -2.3996      1.00000
      9      -2.3355      1.00000
     10      -2.1480      1.00000
     11      -2.0479      1.00000
     12      -1.9136      1.00000
     13      -1.8751      1.00000
     14      -1.7412      1.00000
     15      -1.7327      1.00000
     16      -1.6951      1.00000
     17      -1.3834      1.00000
     18      -1.2277      1.00000
     19      -0.7794      1.00000
     20      -0.7778      1.00000
     21      -0.7504      1.00000
     22      -0.7224      1.00000
     23      -0.7028      1.00000
     24      -0.6912      1.00000
     25      -0.5988      1.00000
     26      -0.5730      1.00000
     27      -0.3423      1.00000
     28      -0.3120      1.00000
     29      -0.2601      1.00000
     30      -0.1260      1.00000
     31      -0.1114      1.00000
     32       0.0112      1.00000
     33       0.0481      1.00000
     34       0.1594      1.00000
     35       0.2316      1.00000
     36       4.7133     -0.00000
     37       4.7181     -0.00000
     38       4.7616     -0.00000
     39       4.9811     -0.00000
     40       5.3006     -0.00000
     41       5.3959     -0.00000
     42       6.1376     -0.00000
     43       6.2471     -0.00000
     44       6.6171     -0.00000
     45       6.9329     -0.00000
     46       6.9556      0.00000
     47       7.1778      0.00000
     48       8.1687      0.00000
     49       8.1907      0.00000
     50       9.4852      0.00000
     51       9.7784      0.00000
     52      10.7730      0.00000
 Fermi energy:         1.4796546543

 spin component 2

[...]

 k-point     3 :      -0.3333    0.3333    0.0000
  band No.  band energies     occupation
      1      -2.6371      1.00000
      2      -2.6063      1.00000
      3      -2.5980      1.00000
      4      -2.5042      1.00000
      5      -2.5017      1.00000
      6      -2.4434      1.00000
      7      -2.4122      1.00000
      8      -2.3996      1.00000
      9      -2.3355      1.00000
     10      -2.1480      1.00000
     11      -2.0479      1.00000
     12      -1.9136      1.00000
     13      -1.8751      1.00000
     14      -1.7412      1.00000
     15      -1.7327      1.00000
     16      -1.6951      1.00000
     17      -1.3834      1.00000
     18      -1.2277      1.00000
     19      -0.7794      1.00000
     20      -0.7778      1.00000
     21      -0.7504      1.00000
     22      -0.7224      1.00000
     23      -0.7028      1.00000
     24      -0.6912      1.00000
     25      -0.5988      1.00000
     26      -0.5730      1.00000
     27      -0.3423      1.00000
     28      -0.3120      1.00000
     29      -0.2601      1.00000
     30      -0.1260      1.00000
     31      -0.1114      1.00000
     32       0.0112      1.00000
     33       0.0481      1.00000
     34       0.1594      1.00000
     35       0.2316      1.00000
     36       4.7133     -0.00000
     37       4.7181     -0.00000
     38       4.7616     -0.00000
     39       4.9811     -0.00000
     40       5.3006     -0.00000
     41       5.3959     -0.00000
     42       6.1376     -0.00000
     43       6.2471     -0.00000
     44       6.6171     -0.00000
     45       6.9329     -0.00000
     46       6.9556      0.00000
     47       7.1778      0.00000
     48       8.1687      0.00000
     49       8.1907      0.00000
     50       9.4852      0.00000
     51       9.7784      0.00000
     52      10.7730      0.00000

[...]

 soft charge-density along one line, spin component           2
         0         1         2         3         4         5         6         7         8         9
 total charge-density along one line

------------------------ aborting loop because EDIFF is reached ----------------------------------------

 DIPCOR: dipole corrections for dipol
 direction  3 min pos   206,
 dipolmoment           0.000000      0.000000     -0.005658 electrons x Angstroem
 Tr[quadrupol]       -63.204565

 energy correction for charged system         0.000000 eV
 dipol+quadrupol energy correction            0.000018 eV
 added-field ion interaction          0.000000 eV  (added to PSCEN)

  *************** adding dipol energy to TOTEN NOW ****************

         DFTD3 V3.0 Rev 1
 Edisp (eV)   -2.93125

 E6    (eV) :    -1.2059
 E8    (eV) :    -1.7253
 % E8        : 58.86

  FORCE on cell =-STRESS in cart. coord.  units (eV):
  Direction    XX          YY          ZZ          XY          YZ          ZX
  Alpha Z   227.76330   227.76330   227.76330
  Ewald   48855.14685 48855.14685-53987.94028    -0.00000    -0.00000    -0.00000
  Hartree 51579.66378 51579.66378-49986.52359     0.00000    -0.00000    -0.00000
  E(xc)    -450.18338  -450.18326  -450.59299    -0.00011     0.00000     0.00000
  Local  ************************103063.57723     0.00351     0.00000     0.00000
  n-local  -153.00843  -146.18143  -154.47082     5.91262    -1.00606     1.74696
  augment   664.72090   664.72479   659.41534    -0.00337    -0.00000    -0.00001
  Kinetic   638.91988   619.11253   630.07558   -17.15323    -1.85404     3.21146
  Fock        0.00000     0.00000     0.00000     0.00000     0.00000     0.00000
  vdW        -3.55725    -3.55725    -2.90106     0.00000     0.00000     0.00000
  Total      -5.23311    -5.23311    -1.59729    -0.00000     0.00000    -0.00000
  in kB     -53.29004   -53.29004   -16.26560    -0.00000     0.00000    -0.00000

 VOLUME and BASIS-vectors are now :
  energy-cutoff  :      400.00
  volume of cell :      157.33
      direct lattice vectors                 reciprocal lattice vectors
     2.566797733  0.000000000  0.000000000     0.389590495 -0.224930177  0.000000000
     1.283398867  2.222912043  0.000000000     0.000000000  0.449860355  0.000000000
     0.000000000  0.000000000 27.574689230     0.000000000  0.000000000  0.036265141

  length of vectors
     2.566797733  2.566797733 27.574689230     0.449860355  0.449860355  0.036265141

 FORCES acting on ions
    electron-ion (+dipol)            ewald-force                    non-local-force                 convergence-correction
   -.408E-05 -.235E-05 0.551E+04   0.797E-08 -.251E-08 -.551E+04   0.347E-17 0.694E-17 -.279E+01   -.743E-08 -.429E-08 0.426E-01
   0.759E-05 0.561E-05 0.372E+04   -.232E-07 -.439E-09 -.372E+04   0.694E-17 -.139E-16 0.128E+01   -.132E-08 -.825E-09 0.293E+00
   -.958E-05 -.525E-05 0.187E+04   0.249E-07 0.100E-07 -.187E+04   0.694E-17 -.347E-17 -.143E+00   0.406E-06 0.235E-06 0.487E+00
   -.242E-06 -.140E-06 0.103E+02   -.510E-10 -.101E-07 -.108E+02   -.542E-19 -.108E-18 -.889E-01   0.181E-05 0.105E-05 0.620E+00
   0.107E-04 0.741E-05 -.185E+04   -.246E-07 0.108E-09 0.185E+04   -.347E-17 0.347E-17 0.330E+00   -.191E-05 -.110E-05 0.233E+00
   -.627E-05 -.334E-05 -.370E+04   0.253E-07 0.105E-07 0.370E+04   0.139E-16 0.139E-16 -.167E+01   0.231E-06 0.133E-06 0.238E+00
   0.650E-05 0.375E-05 -.557E+04   -.103E-07 -.764E-08 0.557E+04   0.000E+00 0.000E+00 0.316E+01   -.967E-07 -.559E-07 -.201E-01
   0.463E-05 0.569E-05 -.195E+01   0.620E-13 -.181E-13 0.000E+00   0.277E-16 0.683E-17 0.749E-01   0.435E-06 0.251E-06 0.189E+01

 POSITION                                       TOTAL-FORCE (eV/Angst)
      0.00000      0.00000      0.00000         0.000000     -0.000000      0.473423
      1.28340      0.74097      2.09578        -0.000000     -0.000000     -0.463048
      2.56680      1.48194      4.13209        -0.000000     -0.000000      0.006792
      0.00000     -0.00000      6.16014         0.000000      0.000000     -0.003816
      1.28340      0.74097      8.19017        -0.000000     -0.000000      0.015798
      2.56680      1.48194     10.23334        -0.000000      0.000000     -0.023202
      0.00000     -0.00000     12.23236         0.000000      0.000000     -0.005946
    total drift:                                0.000005      0.000006      0.022853

  FREE ENERGIE OF THE ION-ELECTRON SYSTEM (eV)
  free  energy   TOTEN  =       -29.54326361 eV

  energy  without entropy=      -29.54313476  energy(sigma->0) =      -29.54322066

 d Force = 0.1279320E-03[-0.624E-04, 0.318E-03]  d Energy = 0.1581715E-03-0.302E-04
 d Force =-0.9065804E+01[-0.907E+01,-0.906E+01]  d Ewald  =-0.9065806E+01 0.195E-05

 stress matrix after NEB project (eV)
     -5.23311     -0.00000     -0.00000
     -0.00000     -5.23311      0.00000
     -0.00000      0.00000     -1.59729
  FORCES: max atom, RMS     0.023202    0.011237
  FORCE total and by dimension    0.029731    0.023202
  Stress total and by dimension    7.571146    5.233112
 Conjugate gradient step on ions:
 trial-energy change:   -0.000158  1 .order   -0.000128   -0.000318    0.000062
  (g-gl).g =-0.514E-04      g.g   = 0.245E-03  gl.gl    = 0.485E-02
 g(Force)  = 0.245E-03   g(Stress)= 0.000E+00 ortho     =-0.114E-04
 gamma     =  -0.01058
 trial     =   1.29688
 opt step  =   1.08432  (harmonic =   1.08432) maximal distance =0.00264224
 next E    =   -29.543238   (d E  =  -0.00013)

 reached required accuracy - stopping structural energy minimisation