 vasp.6.3.2 27Jun22 (build Aug 17 2022 15:43:34) complex

 executed on           tv2STDVTST date 2025.01.17  13:52:04

 INCAR:
   ISTART = 0
   ICHARG = 2
   IPIPOL = 3
   IVDW = 11
   IDIPOL = 3
   IVDW = 11
   ISPIN = 2
   ENCUT = 400
   PREC = Normal
   EDIFF = 2E-04
   GGA = PE
   ISMEAR = 1
   SIGMA = 0.2
   LREAL = .FALSE.
   ISYM = 1
   NSW = 800
   IBRION = 2
   POTIM = 0.5
   ISIF = 2
   EDIFFG = -.03
   NPAR = 4
   LWAVE = .FALSE.
   LCHARG = .FALSE.

 POTCAR:    PAW_PBE Cu 22Jun2005
|           W    W    AA    RRRRR   N    N  II  N    N   GGGG   !!!           |
|           W    W   A  A   R    R  NN   N  II  NN   N  G    G  !!!           |
|           W    W  A    A  R    R  N N  N  II  N N  N  G       !!!           |
|           W WW W  AAAAAA  RRRRR   N  N N  II  N  N N  G  GGG   !            |
|           WW  WW  A    A  R   R   N   NN  II  N   NN  G    G                |
|           W    W  A    A  R    R  N    N  II  N    N   GGGG   !!!           |
|     You use a magnetic or noncollinear calculation, but did not specify     |
|     the initial magnetic moment with the MAGMOM tag. Note that a            |
|     default of 1 will be used for all atoms. This ferromagnetic setup       |
|     may break the symmetry of the crystal, in particular it may rule        |
|     out finding an antiferromagnetic solution. Thence, we recommend         |
|     setting the initial magnetic moment manually or verifying carefully     |
|     that this magnetic setup is desired.                                    |

   TITEL  = PAW_PBE Cu 22Jun2005
   POMASS =   63.546; ZVAL   =   11.000    mass and valenz
   ENMAX  =  295.446; ENMIN  =  221.585 eV

  PAW_PBE Cu 22Jun2005                  :

 POSCAR: FCC Cu
  positions in cartesian coordinates
  velocities in cartesian coordinates
 exchange correlation table for  LEXCH =        8
   RHO(1)=    0.500       N(1)  =     2000
   RHO(2)=  100.500       N(2)  =     4000

 VTST: version 4.2, (08/11/21)

 CHAIN: initializing optimizer

 OPT: Using VASP Conjugate-Gradient optimizer
 CHAIN: Read ICHAIN            0

 POSCAR: FCC Cu
  positions in cartesian coordinates
  velocities in cartesian coordinates

 ion  position               nearest neighbor table
   1  0.000  0.000  0.000-   2 2.57   2 2.57   2 2.57
   2  0.333  0.333  0.090-   3 2.57   1 2.57   1 2.57   3 2.57   1 2.57   3 2.57
   3  0.667  0.667  0.179-   2 2.57   2 2.57   2 2.57   4 2.57   4 2.57   4 2.57
   4  0.000  0.000  0.269-   5 2.57   5 2.57   5 2.57   3 2.57   3 2.57   3 2.57
   5  0.333  0.333  0.359-   4 2.57   4 2.57   4 2.57

  LATTYP: Found a hexagonal cell.
 ALAT       =     2.5667977333
 C/A-ratio  =     9.1098437000

  Lattice vectors:

 A1 = (  -1.2833988667,  -2.2229120434,   0.0000000000)
 A2 = (   2.5667977333,   0.0000000000,   0.0000000000)
 A3 = (   0.0000000000,   0.0000000000,  23.3831261600)

Analysis of symmetry for initial positions (statically):
 Subroutine PRICEL returns:
 Original cell was already a primitive cell.

 Routine SETGRP: Setting up the symmetry group for a
 hexagonal supercell.

 Subroutine GETGRP returns: Found 12 space group operations
 (whereof  6 operations were pure point group operations)
 out of a pool of 24 trial point group operations.

The static configuration has the point symmetry C_3v.
 The point group associated with its full space group is D_3d.

Analysis of symmetry for dynamics (positions and initial velocities):
 Subroutine PRICEL returns:
 Original cell was already a primitive cell.

[...]

The dynamic configuration has the point symmetry C_3v.
 The point group associated with its full space group is D_3d.

Analysis of constrained symmetry for selective dynamics:
 Subroutine PRICEL returns:
 Original cell was already a primitive cell.

[...]

The constrained configuration has the point symmetry C_3v.

Analysis of structural, dynamic, and magnetic symmetry:
 Subroutine PRICEL returns:
 Original cell was already a primitive cell.

 Routine SETGRP: Setting up the symmetry group for a
 hexagonal supercell.

 Subroutine GETGRP returns: Found  6 space group operations
 (whereof  6 operations were pure point group operations)
 out of a pool of 24 trial point group operations.

The overall configuration has the point symmetry C_3v.

 Subroutine INISYM returns: Found  6 space group operations
 (whereof  6 operations are pure point group operations),
 and found     1 'primitive' translations

                                     Primitive cell

  volume of cell :     133.4186

  direct lattice vectors                    reciprocal lattice vectors
     2.566797733  0.000000000  0.000000000     0.389590495 -0.224930177  0.000000000
     1.283398867  2.222912043  0.000000000     0.000000000  0.449860355  0.000000000
     0.000000000  0.000000000 23.383126160     0.000000000  0.000000000  0.042765881

  length of vectors
     2.566797733  2.566797733 23.383126160     0.449860355  0.449860355  0.042765881

  position of ions in fractional coordinates (direct lattice)
     0.000000000  0.000000000  0.000000000
     0.333333333  0.333333333  0.089627945
     0.666666667  0.666666667  0.179255889
     0.000000000  0.000000000  0.268883834
     0.333333333  0.333333333  0.358511779

  ion indices of the primitive-cell ions
   primitive index   ion index
                 1           1
                 2           2
                 3           3
                 4           4
                 5           5

 KPOINTS: Auto-mesh

Automatic generation of k-mesh.
 Grid dimensions read from file:
 generate k-points for:    3    3    1

 Generating k-lattice:

  Cartesian coordinates                     Fractional coordinates (reciprocal lattice)
     0.129863498 -0.074976726  0.000000000     0.333333333  0.000000000  0.000000000
     0.000000000  0.149953452  0.000000000     0.000000000  0.333333333  0.000000000
     0.000000000  0.000000000  0.042765881     0.000000000  0.000000000  1.000000000

  Length of vectors
     0.149953452  0.149953452  0.042765881

  Shift w.r.t. Gamma in fractional coordinates (k-lattice)
     0.000000000  0.000000000  0.000000000

 Subroutine IBZKPT returns following result:

 Found      3 irreducible k-points:

 Following reciprocal coordinates:
            Coordinates               Weight
  0.000000  0.000000  0.000000      1.000000
  0.333333  0.000000  0.000000      6.000000
 -0.333333  0.333333  0.000000      2.000000

 Following cartesian coordinates:
            Coordinates               Weight
  0.000000  0.000000  0.000000      1.000000
  0.129863 -0.074977  0.000000      6.000000
 -0.129863  0.224930  0.000000      2.000000

 SYSTEM =  unknown system
 POSCAR =  FCC Cu

 Startparameter for this run:
   NWRITE =      2    write-flag & timer
   PREC   = normal    normal or accurate (medium, high low for compatibility)
   ISTART =      0    job   : 0-new  1-cont  2-samecut
   ICHARG =      2    charge: 1-file 2-atom 10-const
   ISPIN  =      2    spin polarized calculation?
   LNONCOLLINEAR =      F non collinear calculations
   LSORBIT =      F    spin-orbit coupling
   INIWAV =      1    electr: 0-lowe 1-rand  2-diag
   LASPH  =      F    aspherical Exc in radial PAW
 Electronic Relaxation 1
   ENCUT  =  400.0 eV  29.40 Ry    5.42 a.u.   4.19  4.19 38.13*2*pi/ulx,y,z
   ENINI  =  400.0     initial cutoff
   ENAUG  =  587.0 eV  augmentation charge cutoff
   NELM   =     60;   NELMIN=  2; NELMDL= -5     # of ELM steps
   EDIFF  = 0.2E-03   stopping-criterion for ELM
   LREAL  =      F    real-space projection
   NLSPLINE    = F    spline interpolate recip. space projectors
   LCOMPAT=      F    compatible to vasp.4.4
   GGA_COMPAT  = T    GGA compatible to vasp.4.4-vasp.4.6
   LMAXPAW     = -100 max onsite density
   LMAXMIX     =    2 max onsite mixed and CHGCAR
   VOSKOWN=      0    Vosko Wilk Nusair interpolation
   ROPT   =    0.00000
 Ionic relaxation
   EDIFFG = -.3E-01   stopping-criterion for IOM
   NSW    =    800    number of steps for IOM
   NBLOCK =      1;   KBLOCK =    800    inner block; outer block
   IBRION =      2    ionic relax: 0-MD 1-quasi-New 2-CG
   NFREE  =      1    steps in history (QN), initial steepest desc. (CG)
   ISIF   =      2    stress and relaxation
   IWAVPR =     11    prediction:  0-non 1-charg 2-wave 3-comb
   ISYM   =      1    0-nonsym 1-usesym 2-fastsym
   LCORR  =      T    Harris-Foulkes like correction to forces

   POTIM  = 0.5000    time-step for ionic-motion
   TEIN   =    0.0    initial temperature
   TEBEG  =    0.0;   TEEND  =   0.0 temperature during run
   SMASS  =  -3.00    Nose mass-parameter (am)
   estimated Nose-frequenzy (Omega)   =  0.10E-29 period in steps = 0.13E+47 mass=  -0.151E-27a.u.
   SCALEE = 1.0000    scale energy and forces
   NPACO  =    256;   APACO  = 10.0  distance and # of slots for P.C.
   PSTRESS=    0.0 pullay stress

  Mass of Ions in am
   POMASS =  63.55
  Ionic Valenz
   ZVAL   =  11.00
  Atomic Wigner-Seitz radii
  virtual crystal weights
   VCA    =   1.00
   NELECT =      55.0000    total number of electrons
   NUPDOWN=      -1.0000    fix difference up-down

 DOS related values:
   EMIN   =  10.00;   EMAX   =-10.00  energy-range for DOS
   EFERMI =   0.00
   ISMEAR =     1;   SIGMA  =   0.20  broadening in eV -4-tet -1-fermi 0-gaus

 Electronic relaxation 2 (details)
   IALGO  =     38    algorithm
   LDIAG  =      T    sub-space diagonalisation (order eigenvalues)
   LSUBROT=      F    optimize rotation matrix (better conditioning)
   TURBO    =      0    0=normal 1=particle mesh
   IRESTART =      0    0=no restart 2=restart with 2 vectors
   NREBOOT  =      0    no. of reboots
   NMIN     =      0    reboot dimension
   EREF     =   0.00    reference energy to select bands
   IMIX   =      4    mixing-type and parameters
     AMIX     =   0.40;   BMIX     =  1.00
     AMIX_MAG =   1.60;   BMIX_MAG =  1.00
     AMIN     =   0.10
     WC   =   100.;   INIMIX=   1;  MIXPRE=   1;  MAXMIX= -45

 Intra band minimization:
   WEIMIN = 0.0010     energy-eigenvalue tresh-hold
   EBREAK =  0.14E-05  absolut break condition
   DEPER  =   0.30     relativ break condition

   TIME   =   0.40     timestep for ELM

  volume/ion in A,a.u.               =      26.68       180.07
  Fermi-wavevector in a.u.,A,eV,Ry     =   1.218401  2.302444 20.197860  1.484501
  Thomas-Fermi vector in A             =   2.353689

 Write flags
   LWAVE        =      F    write WAVECAR
   LDOWNSAMPLE  =      F    k-point downsampling of WAVECAR
   LCHARG       =      F    write CHGCAR
   LVTOT        =      F    write LOCPOT, total local potential
   LVHAR        =      F    write LOCPOT, Hartree potential only
   LELF         =      F    write electronic localiz. function (ELF)
   LORBIT       =      0    0 simple, 1 ext, 2 COOP (PROOUT), +10 PAW based schemes

 Dipole corrections
   LMONO  =      F    monopole corrections only (constant potential shift)
   LDIPOL =      F    correct potential (dipole corrections)
   IDIPOL =      3    1-x, 2-y, 3-z, 4-all directions
   EPSILON=  1.0000000 bulk dielectric constant

 Exchange correlation treatment:
   GGA     =    PE    GGA type
   VOSKOWN =     0    Vosko Wilk Nusair interpolation
[...]
     -0.00000     -3.55298      0.00000
      0.00000      0.00000     -4.04939
  FORCES: max atom, RMS     0.545092    0.259028
  FORCE total and by dimension    0.579205    0.545092
  Stress total and by dimension    6.453287    4.049390

[...]

         DFTD3 V3.0 Rev 1
 Edisp (eV)   -1.86868

[...]

 d Force = 0.1359473E-01[ 0.110E-01, 0.162E-01]  d Energy = 0.1399447E-01-0.400E-03
 d Force =-0.9124072E+02[-0.915E+02,-0.910E+02]  d Ewald  =-0.9124118E+02 0.451E-03

 stress matrix after NEB project (eV)
     -2.52087     -0.00000     -0.00000
     -0.00000     -2.52087     -0.00000
     -0.00000      0.00000     -2.86573
  FORCES: max atom, RMS     0.409413    0.183824
  FORCE total and by dimension    0.411044    0.409413
  Stress total and by dimension    4.574053    2.865727
 Steepest descent step on ions:
 trial-energy change:   -0.013994  1 .order   -0.013595   -0.016184   -0.011005
  (g-gl).g = 0.162E-01      g.g   = 0.162E-01  gl.gl    = 0.000E+00
 g(Force)  = 0.162E-01   g(Stress)= 0.000E+00 ortho     = 0.000E+00
 gamma     =   0.00000
 trial     =   1.00000
 opt step  =   3.12483  (harmonic =   3.12483) maximal distance =0.02952283
 next E    =   -20.580919   (d E  =  -0.02529)

[...]

 d Force = 0.6589056E-02[-0.102E-01, 0.234E-01]  d Energy = 0.1022250E-01-0.363E-02
 d Force =-0.1956232E+03[-0.197E+03,-0.194E+03]  d Ewald  =-0.1956283E+03 0.504E-02

[...]

 d Force = 0.1165784E-02[-0.769E-03, 0.310E-02]  d Energy = 0.1042893E-02 0.123E-03
 d Force = 0.5968920E+02[ 0.596E+02, 0.598E+02]  d Ewald  = 0.5968935E+02-0.152E-03

[...]

 d Force = 0.9838116E-04[ 0.438E-04, 0.153E-03]  d Energy =-0.7114940E-03 0.810E-03
 d Force =-0.1184783E+02[-0.119E+02,-0.118E+02]  d Ewald  =-0.1184783E+02 0.116E-05

[...]

 stress matrix after NEB project (eV)
     -3.35289     -0.00000     -0.00000
     -0.00000     -3.35289     -0.00000
      0.00000      0.00000     -3.23230
  FORCES: max atom, RMS     0.213684    0.112293
  FORCE total and by dimension    0.251096    0.213684
  Stress total and by dimension    5.738601    3.352893
 Conjugate gradient step on ions:
 trial-energy change:   -0.004965  1 .order   -0.005439   -0.005864   -0.005013
  (g-gl).g = 0.401E-02      g.g   = 0.435E-02  gl.gl    = 0.162E-01
 g(Force)  = 0.435E-02   g(Stress)= 0.000E+00 ortho     = 0.342E-03
 gamma     =   0.24785
 trial     =   1.32151
 opt step  =   5.28605  (harmonic =   9.10997) maximal distance =0.01381117
 next E    =   -20.600393   (d E  =  -0.02021)

[...]

 d Force =-0.2312373E-01[-0.565E-01, 0.102E-01]  d Energy =-0.2363313E-01 0.509E-03
 d Force =-0.5931342E+03[-0.598E+03,-0.589E+03]  d Ewald  =-0.5931495E+03 0.153E-01

[...]

 d Force = 0.2422936E-01[ 0.645E-03, 0.478E-01]  d Energy = 0.2354166E-01 0.688E-03
 d Force = 0.5028277E+03[ 0.500E+03, 0.506E+03]  d Ewald  = 0.5028372E+03-0.948E-02

[...]

 stress matrix after NEB project (eV)
     -2.85925     -0.00000     -0.00000
     -0.00000     -2.85925      0.00000
     -0.00000      0.00000     -2.23805
  FORCES: max atom, RMS     0.332301    0.149924
  FORCE total and by dimension    0.335240    0.332301
  Stress total and by dimension    4.621638    2.859254
 Conjugate gradient step on ions:
 trial-energy change:   -0.003717  1 .order   -0.003677   -0.003985   -0.003369
  (g-gl).g = 0.687E-02      g.g   = 0.615E-02  gl.gl    = 0.435E-02
 g(Force)  = 0.615E-02   g(Stress)= 0.000E+00 ortho     =-0.961E-04
 gamma     =   1.57818
 trial     =   0.66380
 opt step  =   2.65522  (harmonic =   4.29886) maximal distance =0.00000000
 next E    =   -20.608609   (d E  =  -0.01290)

[...]

 d Force = 0.1004626E-02[ 0.565E-03, 0.144E-02]  d Energy = 0.1436853E-02-0.432E-03
 d Force = 0.1471354E+03[ 0.147E+03, 0.147E+03]  d Ewald  = 0.1471354E+03-0.358E-04

[...]

 d Force = 0.3730027E-02[ 0.101E-02, 0.645E-02]  d Energy = 0.3559631E-02 0.170E-03
 d Force =-0.3174089E+02[-0.319E+02,-0.315E+02]  d Ewald  =-0.3174086E+02-0.312E-04

 stress matrix after NEB project (eV)
     -2.49449     -0.00000      0.00000
     -0.00000     -2.49449      0.00000
     -0.00000      0.00000     -0.87463
  FORCES: max atom, RMS     0.062128    0.038151
  FORCE total and by dimension    0.085308    0.062128
  Stress total and by dimension    3.634549    2.494491
 Conjugate gradient step on ions:
 trial-energy change:   -0.003560  1 .order   -0.003730   -0.006455   -0.001005
  (g-gl).g = 0.225E-02      g.g   = 0.412E-02  gl.gl    = 0.615E-02
 g(Force)  = 0.412E-02   g(Stress)= 0.000E+00 ortho     =-0.517E-03
 gamma     =   0.36615
 trial     =   1.64025
 opt step  =   1.94287  (harmonic =   1.94287) maximal distance =0.00264667
 next E    =   -20.617640   (d E  =  -0.00382)

[...]

 d Force = 0.1169128E-03[ 0.483E-04, 0.185E-03]  d Energy =-0.1055140E-03 0.222E-03
 d Force =-0.5898327E+01[-0.590E+01,-0.589E+01]  d Ewald  =-0.5898327E+01-0.144E-06

[...]

 d Force =-0.1657348E-04[-0.502E-04, 0.170E-04]  d Energy = 0.1748336E-03-0.191E-03
 d Force =-0.2082511E+01[-0.208E+01,-0.208E+01]  d Ewald  =-0.2082511E+01-0.572E-08

[...]

 d Force =-0.1333280E-04[-0.641E-04, 0.375E-04]  d Energy = 0.3913881E-04-0.525E-04
 d Force = 0.1554763E+01[ 0.155E+01, 0.156E+01]  d Ewald  = 0.1554763E+01 0.231E-08

[...]

 d Force =-0.5081634E-05[-0.118E-04, 0.167E-05]  d Energy = 0.9034197E-05-0.141E-04
 d Force = 0.2209502E+00[ 0.221E+00, 0.221E+00]  d Ewald  = 0.2209502E+00 0.175E-09

[...]

 d Force = 0.2410838E-05[ 0.111E-05, 0.371E-05]  d Energy =-0.8910311E-03 0.893E-03
 d Force = 0.9683124E-01[ 0.968E-01, 0.968E-01]  d Ewald  = 0.9683124E-01 0.146E-10

[...]

 d Force = 0.2614886E-06[ 0.167E-06, 0.356E-06]  d Energy =-0.2840995E-03 0.284E-03
 d Force = 0.3110080E-01[ 0.311E-01, 0.311E-01]  d Ewald  = 0.3110080E-01-0.146E-09

[...]

 d Force = 0.5964459E-07[-0.833E-08, 0.128E-06]  d Energy =-0.4021736E-04 0.403E-04
 d Force = 0.2374874E-01[ 0.237E-01, 0.237E-01]  d Ewald  = 0.2374874E-01 0.946E-10

[...]

 stress matrix after NEB project (eV)
     -2.63046     -0.00000     -0.00000
     -0.00000     -2.63046      0.00000
     -0.00000      0.00000     -1.18371
  FORCES: max atom, RMS     0.060343    0.029074
  FORCE total and by dimension    0.065011    0.060343
  Stress total and by dimension    3.903814    2.630456
 Conjugate gradient step on ions:
 trial-energy change:   -0.000129  1 .order   -0.000050   -0.000560    0.000460
  (g-gl).g = 0.307E-03      g.g   = 0.326E-03  gl.gl    = 0.412E-02
 g(Force)  = 0.326E-03   g(Stress)= 0.000E+00 ortho     = 0.685E-05
 gamma     =   0.07440
 trial     =   1.71441
 opt step  =   0.94152  (harmonic =   0.94152) maximal distance =0.00185997
 next E    =   -20.616490   (d E  =  -0.00015)

[...]

 d Force = 0.5229148E-04[-0.103E-03, 0.207E-03]  d Energy =-0.3732719E-04 0.896E-04
 d Force =-0.2172357E+01[-0.218E+01,-0.217E+01]  d Ewald  =-0.2172357E+01 0.618E-06

[...]

 eigenvalues of (default mixing * dielectric matrix)
  average eigenvalue GAMMA=   0.2091
  0.3266  0.0917

[...]

 d Force =-0.5823933E-05[-0.146E-04, 0.297E-05]  d Energy =-0.4510506E-04 0.393E-04
 d Force = 0.1236198E+00[ 0.124E+00, 0.124E+00]  d Ewald  = 0.1236198E+00-0.156E-09

[...]

 d Force = 0.3233987E-05[-0.568E-05, 0.121E-04]  d Energy = 0.7033835E-05-0.380E-05
 d Force =-0.1027477E+00[-0.103E+00,-0.103E+00]  d Ewald  =-0.1027477E+00 0.146E-09

[...]

 Broyden mixing:
  rms(total) = 0.10972E-02    rms(broyden)= 0.10960E-02
  rms(prec ) = 0.14256E-02
  weight for this iteration     100.00

[...]

 d Force = 0.2374732E-07[-0.279E-05, 0.284E-05]  d Energy = 0.7200054E-04-0.720E-04
 d Force = 0.5137566E-01[ 0.514E-01, 0.514E-01]  d Ewald  = 0.5137566E-01-0.182E-10

[...]

 eigenvalue-minimisations  :   264
 total energy-change (2. order) : 0.2230494E-04  (-0.1548126E-04)
 number of electron      54.9999944 magnetization       0.0002112
 augmentation part       35.1100266 magnetization       0.0001040

 Broyden mixing:
  rms(total) = 0.36572E-03    rms(broyden)= 0.24885E-03
  rms(prec ) = 0.41089E-03
  weight for this iteration     100.00
  WARNING: grid for Broyden might be to small

[...]

--------------------------------------- Iteration     31(   2)  ---------------------------------------

 eigenvalue-minimisations  :   264
 total energy-change (2. order) :-0.2575216E-04  (-0.1992602E-05)
 number of electron      54.9999944 magnetization       0.0002112
 augmentation part       35.1100266 magnetization       0.0001040

 Free energy of the ion-electron system (eV)
  alpha Z        PSCENC =       137.03633445
  Ewald energy   TEWEN  =     25391.24942214
  -Hartree energ DENC   =    -32087.59968236
  -exchange      EXHF   =         0.00000000
  -V(xc)+E(xc)   XCENC  =       223.19911195
  PAW double counting   =      6578.19823308    -7116.51776542
  entropy T*S    EENTRO =         0.02830770
  eigenvalues    EBANDS =       -99.07656469
  atomic energy  EATOM  =      6954.78820100
  Solvation  Ediel_sol  =         0.00000000
  free energy    TOTEN  =       -18.69440215 eV

  energy without entropy =      -18.72270984  energy(sigma->0) =      -18.70383804

 average (electrostatic) potential at core
  the test charge radii are     0.9430
  (the norm of the test charge is              1.0000)
       1 -69.5255       2 -70.2508       3 -70.4898       4 -70.3343       5 -69.5778

 E-fermi :   0.0692     XC(G=0):  -6.3480     alpha+bet : -5.9416

 Fermi energy:         0.0691913053

[...]

 k-point     3 :      -0.3333    0.3333    0.0000
  band No.  band energies     occupation
      1      -3.2190      1.00000
      2      -3.1559      1.00000
      3      -3.1551      1.00000
      4      -3.0550      1.00000
      5      -3.0174      1.00000
      6      -2.8144      1.00000
      7      -2.7004      1.00000
      8      -2.5687      1.00000
      9      -2.4961      1.00000
     10      -2.3135      1.00000
     11      -2.0047      1.00000
     12      -1.8705      1.00000
     13      -1.3618      1.00000
     14      -1.3126      1.00000
     15      -1.3097      1.00000
     16      -1.3027      1.00000
     17      -1.2535      1.00000
     18      -1.2397      1.00000
     19      -0.9765      1.00000
     20      -0.8048      1.00000
     21      -0.6997      1.00000
     22      -0.6070      1.00001
     23      -0.6013      1.00001
     24      -0.4566      1.00064
     25      -0.4381      1.00098
     26       4.1747     -0.00000
     27       4.2157     -0.00000
     28       4.4725     -0.00000
     29       4.8757     -0.00000
     30       5.5102     -0.00000
     31       5.5865      0.00000
     32       6.3865      0.00000
     33       6.4209      0.00000
     34       7.1314      0.00000
     35       7.8043      0.00000
     36       8.8301      0.00000
 Fermi energy:         0.0691913053

 spin component 2

[...]

 k-point     3 :      -0.3333    0.3333    0.0000
  band No.  band energies     occupation
      1      -3.2190      1.00000
      2      -3.1558      1.00000
      3      -3.1551      1.00000
      4      -3.0550      1.00000
      5      -3.0174      1.00000
      6      -2.8143      1.00000
      7      -2.7004      1.00000
      8      -2.5687      1.00000
      9      -2.4961      1.00000
     10      -2.3134      1.00000
     11      -2.0047      1.00000
     12      -1.8705      1.00000
     13      -1.3618      1.00000
     14      -1.3126      1.00000
     15      -1.3097      1.00000
     16      -1.3027      1.00000
     17      -1.2534      1.00000
     18      -1.2396      1.00000
     19      -0.9765      1.00000
     20      -0.8048      1.00000
     21      -0.6997      1.00000
     22      -0.6069      1.00001
     23      -0.6013      1.00001
     24      -0.4566      1.00064
     25      -0.4380      1.00098
     26       4.1747     -0.00000
     27       4.2157     -0.00000
     28       4.4725     -0.00000
     29       4.8758     -0.00000
     30       5.5103     -0.00000
     31       5.5866      0.00000
     32       6.3865      0.00000
     33       6.4209      0.00000
     34       7.1314      0.00000
     35       7.8043      0.00000
     36       8.8301      0.00000

[...]

 soft charge-density along one line, spin component           2
         0         1         2         3         4         5         6         7         8         9
 total charge-density along one line

------------------------ aborting loop because EDIFF is reached ----------------------------------------

 DIPCOR: dipole corrections for dipol
 direction  3 min pos   166,
 dipolmoment           0.000000      0.000000     -0.004080 electrons x Angstroem
 Tr[quadrupol]       -47.971284

 energy correction for charged system         0.000000 eV
 dipol+quadrupol energy correction            0.000011 eV
 added-field ion interaction          0.000000 eV  (added to PSCEN)

  *************** adding dipol energy to TOTEN NOW ****************

         DFTD3 V3.0 Rev 1
 Edisp (eV)   -1.92209

 E6    (eV) :    -0.7734
 E8    (eV) :    -1.1487
 % E8        : 59.76

  FORCE on cell =-STRESS in cart. coord.  units (eV):
  Direction    XX          YY          ZZ          XY          YZ          ZX
  Alpha Z   137.03633   137.03633   137.03633
  Ewald   29053.79397 29053.79397-32716.34134    -0.00000     0.00000    -0.00000
  Hartree 30946.06770 30946.06770-29804.71702     0.00000    -0.00000    -0.00000
  E(xc)    -321.65333  -321.65324  -322.11644    -0.00008     0.00000     0.00000
  Local  -60633.50874-60633.51164 61899.97128     0.00251    -0.00000    -0.00000
  n-local  -110.19870  -105.33639  -112.53415     4.21114    -0.63130     1.10052
  augment   474.46244   474.46521   469.68719    -0.00241    -0.00001    -0.00002
  Kinetic   458.40529   443.99137   449.40542   -12.48257    -1.20435     2.08603
  Fock        0.00000     0.00000     0.00000     0.00000     0.00000     0.00000
  vdW        -2.36357    -2.36357    -1.68199     0.00000     0.00000     0.00000
  Total      -2.73443    -2.73443    -1.29071    -0.00000     0.00000    -0.00000
  in kB     -32.83683   -32.83683   -15.49971    -0.00000     0.00000    -0.00000

 VOLUME and BASIS-vectors are now :
  energy-cutoff  :      400.00
  volume of cell :      133.42
      direct lattice vectors                 reciprocal lattice vectors
     2.566797733  0.000000000  0.000000000     0.389590495 -0.224930177  0.000000000
     1.283398867  2.222912043  0.000000000     0.000000000  0.449860355  0.000000000
     0.000000000  0.000000000 23.383126160     0.000000000  0.000000000  0.042765881

  length of vectors
     2.566797733  2.566797733 23.383126160     0.449860355  0.449860355  0.042765881

 FORCES acting on ions
    electron-ion (+dipol)            ewald-force                    non-local-force                 convergence-correction
   -.413E-05 -.238E-05 0.431E+04   0.797E-08 -.252E-08 -.430E+04   -.139E-16 0.139E-16 -.373E+01   -.134E-08 -.774E-09 0.160E+00
   0.522E-05 0.424E-05 0.220E+04   -.242E-07 -.632E-09 -.220E+04   0.208E-16 -.139E-16 0.413E+00   0.370E-08 0.213E-08 0.556E+00
   -.425E-05 -.217E-05 0.158E+02   0.261E-07 0.104E-07 -.165E+02   0.000E+00 0.000E+00 0.160E+00   -.391E-10 -.198E-10 0.546E+00
   0.155E-05 0.897E-06 -.216E+04   0.113E-08 -.106E-07 0.216E+04   0.694E-17 0.000E+00 -.974E+00   0.409E-08 0.236E-08 0.432E+00
   0.937E-05 0.664E-05 -.436E+04   -.109E-07 0.341E-08 0.435E+04   -.694E-17 0.694E-17 0.398E+01   0.473E-08 0.287E-08 0.106E+00
   0.776E-05 0.723E-05 -.164E+01   0.138E-12 -.751E-13 0.000E+00   0.694E-17 0.694E-17 -.156E+00   0.111E-07 0.657E-08 0.180E+01

 POSITION                                       TOTAL-FORCE (eV/Angst)
      0.00000      0.00000      0.00000         0.000000      0.000000      0.524824
      1.28340      0.74097      2.09578         0.000000      0.000000     -0.556299
      2.56680      1.48194      4.10907         0.000000     -0.000000      0.007450
     -0.00000     -0.00000      6.13029         0.000000      0.000000      0.024432
      1.28340      0.74097      8.11223        -0.000000     -0.000000     -0.000407
    total drift:                                0.000008      0.000007      0.006326

  FREE ENERGIE OF THE ION-ELECTRON SYSTEM (eV)
  free  energy   TOTEN  =       -20.61648201 eV

  energy  without entropy=      -20.64478971  energy(sigma->0) =      -20.62591791

 d Force = 0.5969728E-06[-0.191E-06, 0.138E-05]  d Energy =-0.6615371E-04 0.668E-04
 d Force =-0.2547081E-01[-0.255E-01,-0.255E-01]  d Ewald  =-0.2547081E-01 0.131E-09

 stress matrix after NEB project (eV)
     -2.73443     -0.00000     -0.00000
     -0.00000     -2.73443     -0.00000
     -0.00000      0.00000     -1.29071
  FORCES: max atom, RMS     0.024432    0.011424
  FORCE total and by dimension    0.025546    0.024432
  Stress total and by dimension    4.076785    2.734432

 reached required accuracy - stopping structural energy minimisation