 vasp.6.3.2 27Jun22 (build Aug 17 2022 15:43:34) complex

 executed on           tv2STDVTST date 2025.01.17  13:52:40

 INCAR:
   ISTART = 0
   ICHARG = 2
   IPIPOL = 3
   IVDW = 11
   IDIPOL = 3
   IVDW = 11
   ISPIN = 2
   ENCUT = 400
   PREC = Normal
   EDIFF = 2E-04
   GGA = PE
   ISMEAR = 1
   SIGMA = 0.2
   LREAL = .FALSE.
   ISYM = 1
   NSW = 800
   IBRION = 2
   POTIM = 0.5
   ISIF = 2
   EDIFFG = -.03
   NPAR = 4
   LWAVE = .FALSE.
   LCHARG = .FALSE.

 POTCAR:    PAW_PBE Cu 22Jun2005
|           W    W    AA    RRRRR   N    N  II  N    N   GGGG   !!!           |
|           W    W   A  A   R    R  NN   N  II  NN   N  G    G  !!!           |
|           W    W  A    A  R    R  N N  N  II  N N  N  G       !!!           |
|           W WW W  AAAAAA  RRRRR   N  N N  II  N  N N  G  GGG   !            |
|           WW  WW  A    A  R   R   N   NN  II  N   NN  G    G                |
|           W    W  A    A  R    R  N    N  II  N    N   GGGG   !!!           |
|     You use a magnetic or noncollinear calculation, but did not specify     |
|     the initial magnetic moment with the MAGMOM tag. Note that a            |
|     default of 1 will be used for all atoms. This ferromagnetic setup       |
|     may break the symmetry of the crystal, in particular it may rule        |
|     out finding an antiferromagnetic solution. Thence, we recommend         |
|     setting the initial magnetic moment manually or verifying carefully     |
|     that this magnetic setup is desired.                                    |

   TITEL  = PAW_PBE Cu 22Jun2005
   POMASS =   63.546; ZVAL   =   11.000    mass and valenz
   ENMAX  =  295.446; ENMIN  =  221.585 eV

  PAW_PBE Cu 22Jun2005                  :

 POSCAR: FCC Cu
  positions in cartesian coordinates
  velocities in cartesian coordinates
 exchange correlation table for  LEXCH =        8
   RHO(1)=    0.500       N(1)  =     2000
   RHO(2)=  100.500       N(2)  =     4000

 VTST: version 4.2, (08/11/21)

 CHAIN: initializing optimizer

 OPT: Using VASP Conjugate-Gradient optimizer
 CHAIN: Read ICHAIN            0

 POSCAR: FCC Cu
  positions in cartesian coordinates
  velocities in cartesian coordinates

 ion  position               nearest neighbor table
   1  0.000  0.000  0.000-   2 2.57   2 2.57   2 2.57
   2  0.333  0.333  0.082-   3 2.57   1 2.57   1 2.57   3 2.57   1 2.57   3 2.57
   3  0.667  0.667  0.165-   2 2.57   2 2.57   2 2.57   4 2.57   4 2.57   4 2.57
   4  0.000  0.000  0.247-   5 2.57   5 2.57   5 2.57   3 2.57   3 2.57   3 2.57
   5  0.333  0.333  0.329-   6 2.57   6 2.57   6 2.57   4 2.57   4 2.57   4 2.57
   6  0.667  0.667  0.411-   5 2.57   5 2.57   5 2.57

  LATTYP: Found a hexagonal cell.
 ALAT       =     2.5667977333
 C/A-ratio  =     9.9263402641

  Lattice vectors:

 A1 = (  -1.2833988667,  -2.2229120434,   0.0000000000)
 A2 = (   2.5667977333,   0.0000000000,   0.0000000000)
 A3 = (   0.0000000000,   0.0000000000,  25.4789076900)

Analysis of symmetry for initial positions (statically):
 Subroutine PRICEL returns:
 Original cell was already a primitive cell.

 Routine SETGRP: Setting up the symmetry group for a
 hexagonal supercell.

 Subroutine GETGRP returns: Found 12 space group operations
 (whereof  6 operations were pure point group operations)
 out of a pool of 24 trial point group operations.

The static configuration has the point symmetry C_3v.
 The point group associated with its full space group is D_3d.

Analysis of symmetry for dynamics (positions and initial velocities):
 Subroutine PRICEL returns:
 Original cell was already a primitive cell.

[...]

The dynamic configuration has the point symmetry C_3v.
 The point group associated with its full space group is D_3d.

Analysis of constrained symmetry for selective dynamics:
 Subroutine PRICEL returns:
 Original cell was already a primitive cell.

[...]

The constrained configuration has the point symmetry C_3v.

Analysis of structural, dynamic, and magnetic symmetry:
 Subroutine PRICEL returns:
 Original cell was already a primitive cell.

 Routine SETGRP: Setting up the symmetry group for a
 hexagonal supercell.

 Subroutine GETGRP returns: Found  6 space group operations
 (whereof  6 operations were pure point group operations)
 out of a pool of 24 trial point group operations.

The overall configuration has the point symmetry C_3v.

 Subroutine INISYM returns: Found  6 space group operations
 (whereof  6 operations are pure point group operations),
 and found     1 'primitive' translations

                                     Primitive cell

  volume of cell :     145.3767

  direct lattice vectors                    reciprocal lattice vectors
     2.566797733  0.000000000  0.000000000     0.389590495 -0.224930177  0.000000000
     1.283398867  2.222912043  0.000000000     0.000000000  0.449860355  0.000000000
     0.000000000  0.000000000 25.478907690     0.000000000  0.000000000  0.039248150

  length of vectors
     2.566797733  2.566797733 25.478907690     0.449860355  0.449860355  0.039248150

  position of ions in fractional coordinates (direct lattice)
     0.000000000  0.000000000  0.000000000
     0.333333333  0.333333333  0.082255549
     0.666666667  0.666666667  0.164511098
     0.000000000  0.000000000  0.246766647
     0.333333333  0.333333333  0.329022196
     0.666666667  0.666666667  0.411277745

  ion indices of the primitive-cell ions
   primitive index   ion index
                 1           1
                 2           2
                 3           3
                 4           4
                 5           5
                 6           6

 KPOINTS: Auto-mesh

Automatic generation of k-mesh.
 Grid dimensions read from file:
 generate k-points for:    3    3    1

 Generating k-lattice:

  Cartesian coordinates                     Fractional coordinates (reciprocal lattice)
     0.129863498 -0.074976726  0.000000000     0.333333333  0.000000000  0.000000000
     0.000000000  0.149953452  0.000000000     0.000000000  0.333333333  0.000000000
     0.000000000  0.000000000  0.039248150     0.000000000  0.000000000  1.000000000

  Length of vectors
     0.149953452  0.149953452  0.039248150

  Shift w.r.t. Gamma in fractional coordinates (k-lattice)
     0.000000000  0.000000000  0.000000000

 Subroutine IBZKPT returns following result:

 Found      3 irreducible k-points:

 Following reciprocal coordinates:
            Coordinates               Weight
  0.000000  0.000000  0.000000      1.000000
  0.333333  0.000000  0.000000      6.000000
 -0.333333  0.333333  0.000000      2.000000

 Following cartesian coordinates:
            Coordinates               Weight
  0.000000  0.000000  0.000000      1.000000
  0.129863 -0.074977  0.000000      6.000000
 -0.129863  0.224930  0.000000      2.000000

 SYSTEM =  unknown system
 POSCAR =  FCC Cu

 Startparameter for this run:
   NWRITE =      2    write-flag & timer
   PREC   = normal    normal or accurate (medium, high low for compatibility)
   ISTART =      0    job   : 0-new  1-cont  2-samecut
   ICHARG =      2    charge: 1-file 2-atom 10-const
   ISPIN  =      2    spin polarized calculation?
   LNONCOLLINEAR =      F non collinear calculations
   LSORBIT =      F    spin-orbit coupling
   INIWAV =      1    electr: 0-lowe 1-rand  2-diag
   LASPH  =      F    aspherical Exc in radial PAW
 Electronic Relaxation 1
   ENCUT  =  400.0 eV  29.40 Ry    5.42 a.u.   4.19  4.19 41.55*2*pi/ulx,y,z
   ENINI  =  400.0     initial cutoff
   ENAUG  =  587.0 eV  augmentation charge cutoff
   NELM   =     60;   NELMIN=  2; NELMDL= -5     # of ELM steps
   EDIFF  = 0.2E-03   stopping-criterion for ELM
   LREAL  =      F    real-space projection
   NLSPLINE    = F    spline interpolate recip. space projectors
   LCOMPAT=      F    compatible to vasp.4.4
   GGA_COMPAT  = T    GGA compatible to vasp.4.4-vasp.4.6
   LMAXPAW     = -100 max onsite density
   LMAXMIX     =    2 max onsite mixed and CHGCAR
   VOSKOWN=      0    Vosko Wilk Nusair interpolation
   ROPT   =    0.00000
 Ionic relaxation
   EDIFFG = -.3E-01   stopping-criterion for IOM
   NSW    =    800    number of steps for IOM
   NBLOCK =      1;   KBLOCK =    800    inner block; outer block
   IBRION =      2    ionic relax: 0-MD 1-quasi-New 2-CG
   NFREE  =      1    steps in history (QN), initial steepest desc. (CG)
   ISIF   =      2    stress and relaxation
   IWAVPR =     11    prediction:  0-non 1-charg 2-wave 3-comb
   ISYM   =      1    0-nonsym 1-usesym 2-fastsym
   LCORR  =      T    Harris-Foulkes like correction to forces

   POTIM  = 0.5000    time-step for ionic-motion
   TEIN   =    0.0    initial temperature
   TEBEG  =    0.0;   TEEND  =   0.0 temperature during run
   SMASS  =  -3.00    Nose mass-parameter (am)
   estimated Nose-frequenzy (Omega)   =  0.10E-29 period in steps = 0.13E+47 mass=  -0.151E-27a.u.
   SCALEE = 1.0000    scale energy and forces
   NPACO  =    256;   APACO  = 10.0  distance and # of slots for P.C.
   PSTRESS=    0.0 pullay stress

  Mass of Ions in am
   POMASS =  63.55
  Ionic Valenz
   ZVAL   =  11.00
  Atomic Wigner-Seitz radii
  virtual crystal weights
   VCA    =   1.00
   NELECT =      66.0000    total number of electrons
   NUPDOWN=      -1.0000    fix difference up-down

 DOS related values:
   EMIN   =  10.00;   EMAX   =-10.00  energy-range for DOS
   EFERMI =   0.00
   ISMEAR =     1;   SIGMA  =   0.20  broadening in eV -4-tet -1-fermi 0-gaus

 Electronic relaxation 2 (details)
   IALGO  =     38    algorithm
   LDIAG  =      T    sub-space diagonalisation (order eigenvalues)
   LSUBROT=      F    optimize rotation matrix (better conditioning)
   TURBO    =      0    0=normal 1=particle mesh
   IRESTART =      0    0=no restart 2=restart with 2 vectors
   NREBOOT  =      0    no. of reboots
   NMIN     =      0    reboot dimension
   EREF     =   0.00    reference energy to select bands
   IMIX   =      4    mixing-type and parameters
     AMIX     =   0.40;   BMIX     =  1.00
     AMIX_MAG =   1.60;   BMIX_MAG =  1.00
     AMIN     =   0.10
     WC   =   100.;   INIMIX=   1;  MIXPRE=   1;  MAXMIX= -45

 Intra band minimization:
   WEIMIN = 0.0010     energy-eigenvalue tresh-hold
   EBREAK =  0.11E-05  absolut break condition
   DEPER  =   0.30     relativ break condition

   TIME   =   0.40     timestep for ELM

  volume/ion in A,a.u.               =      24.23       163.51
  Fermi-wavevector in a.u.,A,eV,Ry     =   1.258224  2.377698 21.539753  1.583127
  Thomas-Fermi vector in A             =   2.391844

 Write flags
   LWAVE        =      F    write WAVECAR
   LDOWNSAMPLE  =      F    k-point downsampling of WAVECAR
   LCHARG       =      F    write CHGCAR
   LVTOT        =      F    write LOCPOT, total local potential
   LVHAR        =      F    write LOCPOT, Hartree potential only
   LELF         =      F    write electronic localiz. function (ELF)
   LORBIT       =      0    0 simple, 1 ext, 2 COOP (PROOUT), +10 PAW based schemes

 Dipole corrections
   LMONO  =      F    monopole corrections only (constant potential shift)
   LDIPOL =      F    correct potential (dipole corrections)
   IDIPOL =      3    1-x, 2-y, 3-z, 4-all directions
[...]
   0.199E-05 0.115E-05 -.971E+03   -.329E-12 -.838E-08 0.972E+03   -.520E-17 0.000E+00 -.368E+00   0.660E-08 0.381E-08 0.178E-01
   0.920E-05 0.654E-05 -.291E+04   -.209E-07 -.557E-11 0.292E+04   0.694E-17 0.139E-16 -.627E+00   -.432E-08 -.246E-08 0.853E-01
   -.395E-05 -.200E-05 -.485E+04   0.129E-07 0.251E-08 0.484E+04   -.694E-17 -.694E-17 0.297E+01   -.952E-08 -.549E-08 0.111E+00
   0.227E-05 0.433E-05 0.935E-01   0.190E-12 -.385E-13 -.909E-12   0.191E-16 0.694E-17 0.589E-02   -.204E-07 -.117E-07 -.926E-01

 POSITION                                       TOTAL-FORCE (eV/Angst)
      0.00000      0.00000      0.00000        -0.000000      0.000000      0.449683
      1.28340      0.74097      2.09578        -0.000000      0.000000     -0.110703
      2.56680      1.48194      4.19156        -0.000000     -0.000000     -0.036041
      0.00000      0.00000      6.28734        -0.000000      0.000000      0.019709
      1.28340      0.74097      8.38313        -0.000000     -0.000000      0.121091
      2.56680      1.48194     10.47891         0.000000      0.000000     -0.443738
    total drift:                                0.000002      0.000004      0.006801

  FREE ENERGIE OF THE ION-ELECTRON SYSTEM (eV)
  free  energy   TOTEN  =       -24.89164839 eV

  energy  without entropy=      -24.85776750  energy(sigma->0) =      -24.88035476

 stress matrix after NEB project (eV)
     -4.71518     -0.00000     -0.00000
     -0.00000     -4.71518     -0.00000
     -0.00000     -0.00000     -4.35110
  FORCES: max atom, RMS     0.443738    0.188527
  FORCE total and by dimension    0.461795    0.443738
  Stress total and by dimension    7.962274    4.715176

[...]

         DFTD3 V3.0 Rev 1
 Edisp (eV)   -2.36031

[...]

 d Force = 0.8889422E-02[ 0.749E-02, 0.103E-01]  d Energy = 0.9066324E-02-0.177E-03
 d Force =-0.8423351E+02[-0.844E+02,-0.840E+02]  d Ewald  =-0.8423371E+02 0.200E-03

 stress matrix after NEB project (eV)
     -4.62935     -0.00000     -0.00000
     -0.00000     -4.62935      0.00000
     -0.00000      0.00000     -4.14921
  FORCES: max atom, RMS     0.351283    0.143934
  FORCE total and by dimension    0.352564    0.351283
  Stress total and by dimension    7.750985    4.629353
 Steepest descent step on ions:
 trial-energy change:   -0.009066  1 .order   -0.008889   -0.010288   -0.007491
  (g-gl).g = 0.103E-01      g.g   = 0.103E-01  gl.gl    = 0.000E+00
 g(Force)  = 0.103E-01   g(Stress)= 0.000E+00 ortho     = 0.000E+00
 gamma     =   0.00000
 trial     =   1.00000
 opt step  =   3.67814  (harmonic =   3.67814) maximal distance =0.02148682
 next E    =   -24.910569   (d E  =  -0.01892)

[...]

 d Force = 0.6881228E-02[-0.630E-02, 0.201E-01]  d Energy = 0.7061785E-02-0.181E-03
 d Force =-0.2274164E+03[-0.229E+03,-0.226E+03]  d Ewald  =-0.2274208E+03 0.440E-02

[...]

 d Force = 0.8394006E-03[ 0.174E-03, 0.151E-02]  d Energy = 0.9370562E-03-0.977E-04
 d Force = 0.5458522E+02[ 0.545E+02, 0.547E+02]  d Ewald  = 0.5458528E+02-0.646E-04

[...]

 stress matrix after NEB project (eV)
     -4.47673     -0.00000     -0.00000
     -0.00000     -4.47673     -0.00000
     -0.00000      0.00000     -3.49948
  FORCES: max atom, RMS     0.240383    0.104048
  FORCE total and by dimension    0.254865    0.240383
  Stress total and by dimension    7.233848    4.476727
 Conjugate gradient step on ions:
 trial-energy change:   -0.005672  1 .order   -0.005429   -0.006173   -0.004684
  (g-gl).g = 0.478E-02      g.g   = 0.451E-02  gl.gl    = 0.103E-01
 g(Force)  = 0.451E-02   g(Stress)= 0.000E+00 ortho     =-0.271E-03
 gamma     =   0.46484
 trial     =   1.40763
 opt step  =   5.63054  (harmonic =   5.83882) maximal distance =0.00972004
 next E    =   -24.921515   (d E  =  -0.01280)

[...]

 stress matrix after NEB project (eV)
     -4.22101     -0.00000     -0.00000
     -0.00000     -4.22101      0.00000
     -0.00000     -0.00000     -2.67868
  FORCES: max atom, RMS     0.265469    0.110167
  FORCE total and by dimension    0.269853    0.265469
  Stress total and by dimension    6.542875    4.221013
 Conjugate gradient step on ions:
 trial-energy change:   -0.005661  1 .order   -0.005545   -0.006229   -0.004861
  (g-gl).g = 0.472E-02      g.g   = 0.519E-02  gl.gl    = 0.451E-02
 g(Force)  = 0.519E-02   g(Stress)= 0.000E+00 ortho     = 0.345E-03
 gamma     =   1.04662
 trial     =   1.12180
 opt step  =   4.48718  (harmonic =   5.10831) maximal distance =0.01043716
 next E    =   -24.936128   (d E  =  -0.01418)

[...]

 d Force = 0.6108448E-02[ 0.531E-02, 0.691E-02]  d Energy = 0.5917640E-02 0.191E-03
 d Force =-0.1464729E+03[-0.147E+03,-0.146E+03]  d Ewald  =-0.1464730E+03 0.842E-04

 stress matrix after NEB project (eV)
     -3.96909     -0.00000     -0.00000
     -0.00000     -3.96909     -0.00000
     -0.00000      0.00000     -1.84661
  FORCES: max atom, RMS     0.197243    0.082354
  FORCE total and by dimension    0.201724    0.197243
  Stress total and by dimension    5.909083    3.969085
 Conjugate gradient step on ions:
 trial-energy change:   -0.005918  1 .order   -0.006108   -0.006906   -0.005310
  (g-gl).g = 0.353E-02      g.g   = 0.366E-02  gl.gl    = 0.519E-02
 g(Force)  = 0.366E-02   g(Stress)= 0.000E+00 ortho     = 0.278E-03
 gamma     =   0.68080
 trial     =   1.79487
 opt step  =   7.17949  (harmonic =   7.76732) maximal distance =0.00000000
 next E    =   -24.949852   (d E  =  -0.01494)

[...]

 d Force = 0.2449315E-03[-0.369E-03, 0.859E-03]  d Energy = 0.4986954E-03-0.254E-03
 d Force = 0.9175645E+02[ 0.917E+02, 0.918E+02]  d Ewald  = 0.9175647E+02-0.239E-04

[...]

 d Force = 0.5471089E-04[-0.137E-05, 0.111E-03]  d Energy =-0.1896698E-03 0.244E-03
 d Force =-0.2754933E+02[-0.276E+02,-0.275E+02]  d Ewald  =-0.2754933E+02 0.642E-06

[...]

 stress matrix after NEB project (eV)
     -3.68161     -0.00000     -0.00000
     -0.00000     -3.68161     -0.00000
     -0.00000      0.00000     -1.12881
  FORCES: max atom, RMS     0.044753    0.023220
  FORCE total and by dimension    0.056877    0.044753
  Stress total and by dimension    5.327546    3.681613
 Conjugate gradient step on ions:
 trial-energy change:   -0.000422  1 .order   -0.000155   -0.000651    0.000342
  (g-gl).g = 0.792E-03      g.g   = 0.241E-03  gl.gl    = 0.366E-02
 g(Force)  = 0.241E-03   g(Stress)= 0.000E+00 ortho     =-0.409E-05
 gamma     =   0.21649
 trial     =   2.71603
 opt step  =   1.78145  (harmonic =   1.78145) maximal distance =0.00000000
 next E    =   -24.948831   (d E  =  -0.00021)

[...]

 eigenvalues of (default mixing * dielectric matrix)
  average eigenvalue GAMMA=   0.6672
  1.1727  0.1617

[...]

 d Force =-0.2555274E-04[-0.169E-03, 0.118E-03]  d Energy =-0.1720150E-03 0.146E-03
 d Force = 0.2827866E+02[ 0.283E+02, 0.283E+02]  d Ewald  = 0.2827866E+02-0.280E-06

[...]

 eigenvalue-minimisations  :   568
 total energy-change (2. order) : 0.6354553E-03  (-0.5751182E-02)
 number of electron      66.0000253 magnetization      -0.0000616
 augmentation part       42.1020123 magnetization      -0.0000315

 Broyden mixing:
  rms(total) = 0.20340E-02    rms(broyden)= 0.20280E-02
  rms(prec ) = 0.20956E-02
  weight for this iteration     100.00

[...]

--------------------------------------- Iteration     15(   2)  ---------------------------------------

 eigenvalue-minimisations  :   552
 total energy-change (2. order) :-0.9687269E-04  (-0.1031837E-03)
 number of electron      66.0000253 magnetization      -0.0000616
 augmentation part       42.1020123 magnetization      -0.0000315

 Free energy of the ion-electron system (eV)
  alpha Z        PSCENC =       181.10064324
  Ewald energy   TEWEN  =     34031.48634110
  -Hartree energ DENC   =    -42098.01618276
  -exchange      EXHF   =         0.00000000
  -V(xc)+E(xc)   XCENC  =       267.70954049
  PAW double counting   =      7882.14221458    -8528.33381227
  entropy T*S    EENTRO =        -0.03641982
  eigenvalues    EBANDS =      -104.32650602
  atomic energy  EATOM  =      8345.74584120
  Solvation  Ediel_sol  =         0.00000000
  free energy    TOTEN  =       -22.52834027 eV

  energy without entropy =      -22.49192045  energy(sigma->0) =      -22.51620033

 average (electrostatic) potential at core
  the test charge radii are     0.9430
  (the norm of the test charge is              1.0000)
       1 -69.2696       2 -69.9785       3 -70.1367       4 -70.1447       5 -70.0534
       6 -69.3957

 E-fermi :   0.7769     XC(G=0):  -6.8869     alpha+bet : -6.5434

 Fermi energy:         0.7768625504

[...]

 k-point     3 :      -0.3333    0.3333    0.0000
  band No.  band energies     occupation
      1      -2.9251      1.00000
      2      -2.9128      1.00000
      3      -2.8604      1.00000
      4      -2.7799      1.00000
      5      -2.7570      1.00000
      6      -2.7493      1.00000
      7      -2.6636      1.00000
      8      -2.5078      1.00000
      9      -2.4008      1.00000
     10      -2.2879      1.00000
     11      -2.2328      1.00000
     12      -2.0490      1.00000
     13      -2.0302      1.00000
     14      -1.7413      1.00000
     15      -1.5779      1.00000
     16      -1.1116      1.00000
     17      -1.1022      1.00000
     18      -1.0872      1.00000
     19      -1.0701      1.00000
     20      -1.0174      1.00000
     21      -0.9843      1.00000
     22      -0.9616      1.00000
     23      -0.6862      1.00000
     24      -0.6532      1.00000
     25      -0.4864      1.00000
     26      -0.4692      1.00000
     27      -0.3721      1.00000
     28      -0.2999      1.00000
     29      -0.2274      1.00000
     30      -0.1536      1.00000
     31       4.4162     -0.00000
     32       4.4734     -0.00000
     33       4.5134     -0.00000
     34       4.9688     -0.00000
     35       5.0531     -0.00000
     36       5.6849     -0.00000
     37       5.9869     -0.00000
     38       6.4847      0.00000
     39       6.5393      0.00000
     40       6.7570      0.00000
     41       7.7823      0.00000
     42       7.7976      0.00000
     43       9.2311      0.00000
     44       9.2557      0.00000
 Fermi energy:         0.7768625504

 spin component 2

[...]

 k-point     3 :      -0.3333    0.3333    0.0000
  band No.  band energies     occupation
      1      -2.9251      1.00000
      2      -2.9128      1.00000
      3      -2.8604      1.00000
      4      -2.7799      1.00000
      5      -2.7570      1.00000
      6      -2.7493      1.00000
      7      -2.6636      1.00000
      8      -2.5078      1.00000
      9      -2.4008      1.00000
     10      -2.2880      1.00000
     11      -2.2328      1.00000
     12      -2.0490      1.00000
     13      -2.0302      1.00000
     14      -1.7413      1.00000
     15      -1.5779      1.00000
     16      -1.1116      1.00000
     17      -1.1022      1.00000
     18      -1.0872      1.00000
     19      -1.0701      1.00000
     20      -1.0174      1.00000
     21      -0.9843      1.00000
     22      -0.9616      1.00000
     23      -0.6862      1.00000
     24      -0.6532      1.00000
     25      -0.4864      1.00000
     26      -0.4692      1.00000
     27      -0.3721      1.00000
     28      -0.2999      1.00000
     29      -0.2274      1.00000
     30      -0.1537      1.00000
     31       4.4162     -0.00000
     32       4.4734     -0.00000
     33       4.5134     -0.00000
     34       4.9688     -0.00000
     35       5.0531     -0.00000
     36       5.6849     -0.00000
     37       5.9869     -0.00000
     38       6.4847      0.00000
     39       6.5393      0.00000
     40       6.7570      0.00000
     41       7.7823      0.00000
     42       7.7976      0.00000
     43       9.2311      0.00000
     44       9.2557      0.00000

[...]

 soft charge-density along one line, spin component           2
         0         1         2         3         4         5         6         7         8         9
 total charge-density along one line

------------------------ aborting loop because EDIFF is reached ----------------------------------------

 DIPCOR: dipole corrections for dipol
 direction  3 min pos   173,
 dipolmoment           0.000000      0.000000     -0.005547 electrons x Angstroem
 Tr[quadrupol]       -63.615877

 energy correction for charged system         0.000000 eV
 dipol+quadrupol energy correction            0.000019 eV
 added-field ion interaction          0.000000 eV  (added to PSCEN)

  *************** adding dipol energy to TOTEN NOW ****************

         DFTD3 V3.0 Rev 1
 Edisp (eV)   -2.42061

 E6    (eV) :    -0.9879
 E8    (eV) :    -1.4327
 % E8        : 59.19

  FORCE on cell =-STRESS in cart. coord.  units (eV):
  Direction    XX          YY          ZZ          XY          YZ          ZX
  Alpha Z   181.10064   181.10064   181.10064
  Ewald   38427.64928 38427.64928-42823.81547     0.00000     0.00000     0.00000
  Hartree 40730.16275 40730.16275-39362.56750     0.00000    -0.00000    -0.00000
  E(xc)    -385.80768  -385.80758  -386.25318    -0.00008     0.00000     0.00000
  Local  -79934.99140-79934.99487 81420.82683     0.00300    -0.00000    -0.00000
  n-local  -130.89371  -125.08758  -132.78061     5.02828    -0.78025     1.35596
  augment   569.59949   569.60277   565.09731    -0.00284    -0.00000    -0.00000
  Kinetic   548.08537   530.81130   539.44709   -14.95942    -1.50834     2.61261
  Fock        0.00000     0.00000     0.00000     0.00000     0.00000     0.00000
  vdW        -2.95632    -2.95632    -2.27986    -0.00000     0.00000     0.00000
  Total      -3.78560    -3.78560    -1.22476    -0.00000    -0.00000    -0.00000
  in kB     -41.72058   -41.72058   -13.49788    -0.00000    -0.00000    -0.00000

 VOLUME and BASIS-vectors are now :
  energy-cutoff  :      400.00
  volume of cell :      145.38
      direct lattice vectors                 reciprocal lattice vectors
     2.566797733  0.000000000  0.000000000     0.389590495 -0.224930177  0.000000000
     1.283398867  2.222912043  0.000000000     0.000000000  0.449860355  0.000000000
     0.000000000  0.000000000 25.478907690     0.000000000  0.000000000  0.039248150

  length of vectors
     2.566797733  2.566797733 25.478907690     0.449860355  0.449860355  0.039248150

 FORCES acting on ions
    electron-ion (+dipol)            ewald-force                    non-local-force                 convergence-correction
   -.367E-05 -.212E-05 0.495E+04   0.797E-08 -.252E-08 -.494E+04   -.347E-17 -.694E-17 -.288E+01   -.935E-08 -.540E-08 0.876E-02
   0.142E-05 0.205E-05 0.301E+04   -.238E-07 -.544E-09 -.301E+04   0.000E+00 0.139E-16 0.442E+00   -.525E-08 -.297E-08 -.129E+00
   -.765E-05 -.414E-05 0.101E+04   0.251E-07 0.990E-08 -.101E+04   0.520E-17 0.000E+00 0.540E+00   -.217E-06 -.125E-06 -.249E+00
   0.633E-06 0.366E-06 -.986E+03   0.199E-09 -.984E-08 0.987E+03   0.173E-17 -.347E-17 -.304E+00   -.523E-06 -.302E-06 -.328E+00
   0.982E-05 0.690E-05 -.299E+04   -.260E-07 -.208E-09 0.299E+04   0.208E-16 -.139E-16 -.629E+00   -.131E-05 -.759E-06 -.381E+00
   -.764E-05 -.413E-05 -.499E+04   0.165E-07 0.320E-08 0.499E+04   0.347E-17 0.000E+00 0.321E+01   -.394E-06 -.227E-06 -.142E+00
   -.711E-05 -.109E-05 0.930E+00   0.190E-12 -.385E-13 -.909E-12   0.278E-16 -.104E-16 0.377E+00   -.246E-05 -.142E-05 -.122E+01

 POSITION                                       TOTAL-FORCE (eV/Angst)
      0.00000      0.00000      0.00000        -0.000000      0.000000      0.420176
      1.28340      0.74097      2.09578         0.000000      0.000000     -0.435648
      2.56680      1.48194      4.11943        -0.000000     -0.000000      0.022570
     -0.00000      0.00000      6.15946        -0.000000      0.000000     -0.007813
      1.28340      0.74097      8.19150         0.000000      0.000000      0.021421
      2.56680      1.48194     10.20008        -0.000000     -0.000000     -0.020705
    total drift:                               -0.000010     -0.000003      0.086897

  FREE ENERGIE OF THE ION-ELECTRON SYSTEM (eV)
  free  energy   TOTEN  =       -24.94892638 eV

  energy  without entropy=      -24.91250655  energy(sigma->0) =      -24.93678644

 d Force = 0.3872943E-04[-0.220E-04, 0.994E-04]  d Energy = 0.5897278E-04-0.202E-04
 d Force =-0.1666145E+02[-0.167E+02,-0.167E+02]  d Ewald  =-0.1666145E+02 0.575E-07

 stress matrix after NEB project (eV)
     -3.78560     -0.00000     -0.00000
     -0.00000     -3.78560      0.00000
     -0.00000     -0.00000     -1.22476
  FORCES: max atom, RMS     0.022570    0.015589
  FORCE total and by dimension    0.038184    0.022570
  Stress total and by dimension    5.491952    3.785598

 reached required accuracy - stopping structural energy minimisation