 vasp.6.3.2 27Jun22 (build Aug 17 2022 15:43:34) complex

 executed on           tv2STDVTST date 2025.01.21  20:05:47

 INCAR:
   ISTART = 0
   ICHARG = 2
   IPIPOL = 3
   IVDW = 11
   IDIPOL = 3
   IVDW = 11
   ISPIN = 2
   ENCUT = 400
   PREC = Normal
   EDIFF = 2E-04
   GGA = PE
   ISMEAR = 1
   SIGMA = 0.2
   LREAL = .FALSE.
   ISYM = 1
   NSW = 800
   IBRION = 2
   POTIM = 0.5
   ISIF = 2
   EDIFFG = -.03
   NPAR = 4
   LWAVE = .FALSE.
   LCHARG = .FALSE.

 POTCAR:    PAW_PBE Cu 22Jun2005
|           W    W    AA    RRRRR   N    N  II  N    N   GGGG   !!!           |
|           W    W   A  A   R    R  NN   N  II  NN   N  G    G  !!!           |
|           W    W  A    A  R    R  N N  N  II  N N  N  G       !!!           |
|           W WW W  AAAAAA  RRRRR   N  N N  II  N  N N  G  GGG   !            |
|           WW  WW  A    A  R   R   N   NN  II  N   NN  G    G                |
|           W    W  A    A  R    R  N    N  II  N    N   GGGG   !!!           |
|     You use a magnetic or noncollinear calculation, but did not specify     |
|     the initial magnetic moment with the MAGMOM tag. Note that a            |
|     default of 1 will be used for all atoms. This ferromagnetic setup       |
|     may break the symmetry of the crystal, in particular it may rule        |
|     out finding an antiferromagnetic solution. Thence, we recommend         |
|     setting the initial magnetic moment manually or verifying carefully     |
|     that this magnetic setup is desired.                                    |

   TITEL  = PAW_PBE Cu 22Jun2005
   POMASS =   63.546; ZVAL   =   11.000    mass and valenz
   ENMAX  =  295.446; ENMIN  =  221.585 eV

  PAW_PBE Cu 22Jun2005                  :

 POSCAR: FCC Cu
  positions in cartesian coordinates
  velocities in cartesian coordinates
 exchange correlation table for  LEXCH =        8
   RHO(1)=    0.500       N(1)  =     2000
   RHO(2)=  100.500       N(2)  =     4000

 VTST: version 4.2, (08/11/21)

 CHAIN: initializing optimizer

 OPT: Using VASP Conjugate-Gradient optimizer
 CHAIN: Read ICHAIN            0

 POSCAR: FCC Cu
  positions in cartesian coordinates
  velocities in cartesian coordinates

 ion  position               nearest neighbor table
   1  0.000  0.000  0.000-  19 2.57  28 2.57  21 2.57  34 2.57  10 2.57  12 2.57  16 2.57  18 2.57

   2  0.000  0.333  0.000-  19 2.57  29 2.57  20 2.57  35 2.57  10 2.57  11 2.57  16 2.57  17 2.57

[...]

  19  0.000  0.167  0.075-  37 2.57  38 2.57  46 2.57  52 2.57   2 2.57  10 2.57   1 2.57  16 2.57
                            28 2.57  29 2.57  34 2.57  35 2.57
  20  0.000  0.500  0.075-  47 2.57  38 2.57  53 2.57  39 2.57  11 2.57   2 2.57  17 2.57   3 2.57
                            29 2.57  35 2.57  30 2.57  36 2.57
  21  0.000  0.833  0.075-  48 2.57  39 2.57  37 2.57  54 2.57  12 2.57   3 2.57   1 2.57  18 2.57
                            30 2.57  28 2.57  36 2.57  34 2.57
  22  0.333  0.167  0.075-  40 2.57  41 2.57  46 2.57  49 2.57   5 2.57  10 2.57   4 2.57  13 2.57
                            28 2.57  29 2.57  31 2.57  32 2.57
  23  0.333  0.500  0.075-  47 2.57  41 2.57  50 2.57  42 2.57  11 2.57   5 2.57  14 2.57   6 2.57
                            29 2.57  32 2.57  30 2.57  33 2.57
  24  0.333  0.833  0.075-  48 2.57  42 2.57  51 2.57  40 2.57  12 2.57   6 2.57  15 2.57   4 2.57
                            30 2.57  33 2.57  28 2.57  31 2.57
  25  0.667  0.167  0.075-  43 2.57  44 2.57  52 2.57  49 2.57   7 2.57   8 2.57  16 2.57  13 2.57
                            34 2.57  35 2.57  31 2.57  32 2.57
  26  0.667  0.500  0.075-  44 2.57  53 2.57  50 2.57  45 2.57   8 2.57  17 2.57  14 2.57   9 2.57
                            35 2.57  32 2.57  36 2.57  33 2.57
  27  0.667  0.833  0.075-  45 2.57  54 2.57  43 2.57  51 2.57   9 2.57  18 2.57   7 2.57  15 2.57
                            36 2.57  34 2.57  33 2.57  31 2.57
  28  0.167  0.000  0.075-  37 2.57  40 2.57  46 2.57  48 2.57   4 2.57  10 2.57   1 2.57  12 2.57
                            19 2.57  22 2.57  21 2.57  24 2.57
  29  0.167  0.333  0.075-  38 2.57  41 2.57  46 2.57  47 2.57   5 2.57  10 2.57   2 2.57  11 2.57
                            19 2.57  22 2.57  20 2.57  23 2.57
  30  0.167  0.667  0.075-  39 2.57  42 2.57  48 2.57  47 2.57   3 2.57   6 2.57  12 2.57  11 2.57
                            21 2.57  24 2.57  23 2.57  20 2.57
  31  0.500  0.000  0.075-  49 2.57  40 2.57  51 2.57  43 2.57  13 2.57   4 2.57  15 2.57   7 2.57
                            22 2.57  24 2.57  25 2.57  27 2.57
  32  0.500  0.333  0.075-  49 2.57  41 2.57  50 2.57  44 2.57  13 2.57   5 2.57  14 2.57   8 2.57
                            22 2.57  23 2.57  25 2.57  26 2.57
  33  0.500  0.667  0.075-  42 2.57  51 2.57  50 2.57  45 2.57   6 2.57  15 2.57  14 2.57   9 2.57
                            24 2.57  23 2.57  27 2.57  26 2.57
  34  0.833  0.000  0.075-  52 2.57  43 2.57  37 2.57  54 2.57  16 2.57   7 2.57   1 2.57  18 2.57
                            25 2.57  19 2.57  27 2.57  21 2.57
  35  0.833  0.333  0.075-  52 2.57  44 2.57  53 2.57  38 2.57  16 2.57   8 2.57  17 2.57   2 2.57
                            25 2.57  26 2.57  19 2.57  20 2.57
  36  0.833  0.667  0.075-  45 2.57  54 2.57  39 2.57  53 2.57   9 2.57  18 2.57   3 2.57  17 2.57
                            27 2.57  21 2.57  26 2.57  20 2.57
  37  0.000  0.000  0.151-  19 2.57  28 2.57  21 2.57  34 2.57  55 2.57  64 2.57  57 2.57  70 2.57
                            46 2.57  48 2.57  52 2.57  54 2.57
  38  0.000  0.333  0.151-  19 2.57  29 2.57  20 2.57  35 2.57  55 2.57  65 2.57  56 2.57  71 2.57
                            46 2.57  47 2.57  52 2.57  53 2.57
  39  0.000  0.667  0.151-  30 2.57  21 2.57  36 2.57  20 2.57  66 2.57  57 2.57  72 2.57  56 2.57
                            48 2.57  54 2.57  47 2.57  53 2.57
  40  0.333  0.000  0.151-  22 2.57  28 2.57  31 2.57  24 2.57  58 2.57  64 2.57  67 2.57  60 2.57
                            46 2.57  49 2.57  48 2.57  51 2.57
  41  0.333  0.333  0.151-  22 2.57  29 2.57  23 2.57  32 2.57  58 2.57  65 2.57  59 2.57  68 2.57
                            46 2.57  47 2.57  49 2.57  50 2.57
  42  0.333  0.667  0.151-  30 2.57  24 2.57  33 2.57  23 2.57  66 2.57  60 2.57  69 2.57  59 2.57
                            48 2.57  51 2.57  47 2.57  50 2.57
  43  0.667  0.000  0.151-  25 2.57  34 2.57  27 2.57  31 2.57  61 2.57  70 2.57  63 2.57  67 2.57
                            52 2.57  54 2.57  49 2.57  51 2.57
  44  0.667  0.333  0.151-  25 2.57  26 2.57  35 2.57  32 2.57  61 2.57  62 2.57  71 2.57  68 2.57
                            52 2.57  53 2.57  49 2.57  50 2.57
  45  0.667  0.667  0.151-  27 2.57  36 2.57  33 2.57  26 2.57  63 2.57  72 2.57  69 2.57  62 2.57
                            54 2.57  53 2.57  51 2.57  50 2.57
  46  0.167  0.167  0.151-  19 2.57  22 2.57  28 2.57  29 2.57  55 2.57  58 2.57  64 2.57  65 2.57
                            37 2.57  38 2.57  40 2.57  41 2.57
  47  0.167  0.500  0.151-  20 2.57  23 2.57  29 2.57  30 2.57  56 2.57  59 2.57  65 2.57  66 2.57
                            38 2.57  41 2.57  39 2.57  42 2.57
  48  0.167  0.833  0.151-  21 2.57  24 2.57  30 2.57  28 2.57  57 2.57  60 2.57  66 2.57  64 2.57
                            39 2.57  42 2.57  40 2.57  37 2.57
  49  0.500  0.167  0.151-  31 2.57  32 2.57  22 2.57  25 2.57  67 2.57  68 2.57  58 2.57  61 2.57
                            40 2.57  41 2.57  43 2.57  44 2.57
  50  0.500  0.500  0.151-  23 2.57  32 2.57  26 2.57  33 2.57  59 2.57  68 2.57  62 2.57  69 2.57
                            41 2.57  42 2.57  44 2.57  45 2.57
  51  0.500  0.833  0.151-  24 2.57  33 2.57  31 2.57  27 2.57  60 2.57  69 2.57  67 2.57  63 2.57
                            42 2.57  40 2.57  45 2.57  43 2.57
  52  0.833  0.167  0.151-  34 2.57  35 2.57  25 2.57  19 2.57  70 2.57  71 2.57  61 2.57  55 2.57
                            43 2.57  44 2.57  37 2.57  38 2.57
  53  0.833  0.500  0.151-  26 2.57  35 2.57  20 2.57  36 2.57  62 2.57  71 2.57  56 2.57  72 2.57
                            44 2.57  38 2.57  45 2.57  39 2.57
  54  0.833  0.833  0.151-  27 2.57  36 2.57  34 2.57  21 2.57  63 2.57  72 2.57  70 2.57  57 2.57
                            45 2.57  43 2.57  39 2.57  37 2.57
  55  0.000  0.167  0.226-  73 2.57  74 2.57  82 2.57  88 2.57  38 2.57  46 2.57  37 2.57  52 2.57
                            64 2.57  65 2.57  70 2.57  71 2.57
  56  0.000  0.500  0.226-  83 2.57  74 2.57  89 2.57  75 2.57  47 2.57  38 2.57  53 2.57  39 2.57
                            65 2.57  71 2.57  66 2.57  72 2.57
  57  0.000  0.833  0.226-  84 2.57  75 2.57  73 2.57  90 2.57  48 2.57  39 2.57  37 2.57  54 2.57
                            66 2.57  64 2.57  72 2.57  70 2.57
  58  0.333  0.167  0.226-  76 2.57  77 2.57  82 2.57  85 2.57  41 2.57  46 2.57  40 2.57  49 2.57
                            64 2.57  65 2.57  67 2.57  68 2.57
  59  0.333  0.500  0.226-  83 2.57  77 2.57  86 2.57  78 2.57  47 2.57  41 2.57  50 2.57  42 2.57
                            65 2.57  68 2.57  66 2.57  69 2.57
  60  0.333  0.833  0.226-  84 2.57  78 2.57  87 2.57  76 2.57  48 2.57  42 2.57  51 2.57  40 2.57
                            66 2.57  69 2.57  64 2.57  67 2.57
  61  0.667  0.167  0.226-  79 2.57  80 2.57  88 2.57  85 2.57  43 2.57  44 2.57  52 2.57  49 2.57
                            70 2.57  71 2.57  67 2.57  68 2.57
  62  0.667  0.500  0.226-  80 2.57  89 2.57  86 2.57  81 2.57  44 2.57  53 2.57  50 2.57  45 2.57
                            71 2.57  68 2.57  72 2.57  69 2.57
  63  0.667  0.833  0.226-  81 2.57  90 2.57  79 2.57  87 2.57  45 2.57  54 2.57  43 2.57  51 2.57
                            72 2.57  70 2.57  69 2.57  67 2.57
  64  0.167  0.000  0.226-  73 2.57  76 2.57  82 2.57  84 2.57  40 2.57  46 2.57  37 2.57  48 2.57
                            55 2.57  58 2.57  57 2.57  60 2.57
  65  0.167  0.333  0.226-  74 2.57  77 2.57  82 2.57  83 2.57  41 2.57  46 2.57  38 2.57  47 2.57
                            55 2.57  58 2.57  56 2.57  59 2.57
  66  0.167  0.667  0.226-  75 2.57  78 2.57  84 2.57  83 2.57  39 2.57  42 2.57  48 2.57  47 2.57
                            57 2.57  60 2.57  59 2.57  56 2.57
  67  0.500  0.000  0.226-  85 2.57  76 2.57  87 2.57  79 2.57  49 2.57  40 2.57  51 2.57  43 2.57
                            58 2.57  60 2.57  61 2.57  63 2.57
  68  0.500  0.333  0.226-  85 2.57  77 2.57  86 2.57  80 2.57  49 2.57  41 2.57  50 2.57  44 2.57
                            58 2.57  59 2.57  61 2.57  62 2.57
  69  0.500  0.667  0.226-  78 2.57  87 2.57  86 2.57  81 2.57  42 2.57  51 2.57  50 2.57  45 2.57
                            60 2.57  59 2.57  63 2.57  62 2.57
  70  0.833  0.000  0.226-  88 2.57  79 2.57  73 2.57  90 2.57  52 2.57  43 2.57  37 2.57  54 2.57
                            61 2.57  55 2.57  63 2.57  57 2.57
  71  0.833  0.333  0.226-  88 2.57  80 2.57  89 2.57  74 2.57  52 2.57  44 2.57  53 2.57  38 2.57
                            61 2.57  62 2.57  55 2.57  56 2.57
  72  0.833  0.667  0.226-  81 2.57  90 2.57  75 2.57  89 2.57  45 2.57  54 2.57  39 2.57  53 2.57
                            63 2.57  57 2.57  62 2.57  56 2.57
[...]
   0.168E-05 -.516E-06 0.457E+04   0.279E-06 -.350E-06 -.456E+04   -.728E-22 -.237E-22 -.348E+01   -.413E-09 0.117E-09 -.140E-01
   -.516E-06 0.282E-12 0.457E+04   -.350E-06 -.229E-06 -.456E+04   0.265E-22 -.447E-22 -.348E+01   0.113E-09 0.296E-09 -.140E-01
   -.516E-06 0.168E-05 0.457E+04   -.350E-06 0.279E-06 -.456E+04   0.265E-22 0.641E-22 -.348E+01   0.114E-09 -.413E-09 -.140E-01
   -.516E-06 -.516E-06 0.457E+04   -.350E-06 -.350E-06 -.456E+04   -.132E-22 -.352E-22 -.348E+01   0.114E-09 0.117E-09 -.140E-01
   0.839E-06 0.839E-06 0.457E+04   0.443E-08 0.443E-08 -.456E+04   -.331E-22 -.236E-22 -.348E+01   -.792E-10 -.828E-10 -.140E-01
   0.839E-06 0.252E-05 0.457E+04   0.443E-08 0.471E-06 -.456E+04   -.496E-22 -.232E-22 -.348E+01   -.795E-10 -.335E-09 -.140E-01
   0.839E-06 0.322E-06 0.457E+04   0.443E-08 -.176E-06 -.456E+04   0.000E+00 0.587E-22 -.348E+01   -.792E-10 0.392E-09 -.140E-01
   0.252E-05 0.839E-06 0.457E+04   0.471E-06 0.443E-08 -.456E+04   -.331E-23 0.331E-23 -.348E+01   -.337E-09 -.831E-10 -.140E-01
   0.252E-05 0.252E-05 0.457E+04   0.471E-06 0.471E-06 -.456E+04   0.199E-22 0.827E-23 -.348E+01   -.337E-09 -.335E-09 -.140E-01
   0.252E-05 0.322E-06 0.457E+04   0.471E-06 -.176E-06 -.456E+04   -.331E-23 -.149E-22 -.348E+01   -.337E-09 0.393E-09 -.140E-01
   0.322E-06 0.839E-06 0.457E+04   -.176E-06 0.443E-08 -.456E+04   -.662E-23 -.769E-22 -.348E+01   0.391E-09 -.819E-10 -.140E-01
   0.322E-06 0.252E-05 0.457E+04   -.176E-06 0.471E-06 -.456E+04   0.662E-23 0.639E-22 -.348E+01   0.391E-09 -.335E-09 -.140E-01
   0.322E-06 0.322E-06 0.457E+04   -.176E-06 -.176E-06 -.456E+04   -.199E-22 0.662E-23 -.348E+01   0.391E-09 0.392E-09 -.140E-01
   -.254E-13 0.817E-06 0.280E+04   -.306E-06 0.668E-08 -.280E+04   -.430E-22 -.265E-22 -.845E+00   0.475E-09 -.107E-09 0.377E-01
   -.259E-13 0.245E-05 0.280E+04   -.306E-06 0.631E-06 -.280E+04   -.645E-22 -.368E-22 -.845E+00   0.474E-09 -.597E-09 0.377E-01
   -.291E-13 0.314E-06 0.280E+04   -.306E-06 -.226E-06 -.280E+04   0.265E-22 0.132E-22 -.845E+00   0.475E-09 0.607E-09 0.377E-01
   0.163E-05 0.817E-06 0.280E+04   0.366E-06 0.668E-08 -.280E+04   -.662E-22 -.343E-22 -.845E+00   -.667E-09 -.108E-09 0.377E-01
   0.163E-05 0.245E-05 0.280E+04   0.366E-06 0.631E-06 -.280E+04   -.199E-22 0.215E-22 -.845E+00   -.667E-09 -.596E-09 0.377E-01
   0.163E-05 0.314E-06 0.280E+04   0.366E-06 -.226E-06 -.280E+04   -.132E-22 0.314E-22 -.845E+00   -.667E-09 0.608E-09 0.377E-01
   -.502E-06 0.817E-06 0.280E+04   -.471E-06 0.668E-08 -.280E+04   -.132E-22 -.285E-22 -.845E+00   0.252E-09 -.107E-09 0.377E-01
   -.502E-06 0.245E-05 0.280E+04   -.471E-06 0.631E-06 -.280E+04   0.662E-23 -.207E-24 -.845E+00   0.254E-09 -.597E-09 0.377E-01
   -.502E-06 0.314E-06 0.280E+04   -.471E-06 -.226E-06 -.280E+04   0.265E-22 0.214E-22 -.845E+00   0.253E-09 0.607E-09 0.377E-01
   0.817E-06 -.323E-12 0.280E+04   0.666E-08 -.306E-06 -.280E+04   -.265E-22 0.381E-22 -.845E+00   -.104E-09 0.472E-09 0.377E-01
   0.817E-06 0.163E-05 0.280E+04   0.666E-08 0.366E-06 -.280E+04   -.199E-22 -.331E-23 -.845E+00   -.105E-09 -.668E-09 0.377E-01
   0.817E-06 -.502E-06 0.280E+04   0.666E-08 -.471E-06 -.280E+04   -.397E-22 -.265E-22 -.845E+00   -.105E-09 0.257E-09 0.377E-01
   0.245E-05 0.547E-12 0.280E+04   0.631E-06 -.306E-06 -.280E+04   -.993E-23 -.298E-22 -.845E+00   -.599E-09 0.472E-09 0.377E-01
   0.245E-05 0.163E-05 0.280E+04   0.631E-06 0.366E-06 -.280E+04   -.397E-22 -.323E-22 -.845E+00   -.598E-09 -.668E-09 0.377E-01
   0.245E-05 -.502E-06 0.280E+04   0.631E-06 -.471E-06 -.280E+04   -.529E-22 0.389E-22 -.845E+00   -.598E-09 0.257E-09 0.377E-01
   0.314E-06 -.380E-12 0.280E+04   -.226E-06 -.306E-06 -.280E+04   -.728E-22 0.703E-22 -.845E+00   0.606E-09 0.471E-09 0.377E-01
   0.314E-06 0.163E-05 0.280E+04   -.226E-06 0.366E-06 -.280E+04   0.265E-22 -.414E-24 -.845E+00   0.606E-09 -.667E-09 0.377E-01
   0.314E-06 -.502E-06 0.280E+04   -.226E-06 -.471E-06 -.280E+04   -.662E-23 0.331E-22 -.845E+00   0.606E-09 0.256E-09 0.377E-01
   -.241E-13 -.724E-12 0.941E+03   -.329E-06 -.329E-06 -.941E+03   -.132E-22 0.331E-23 0.858E-01   0.574E-09 0.569E-09 0.692E-01
   -.382E-13 0.163E-05 0.941E+03   -.329E-06 0.398E-06 -.941E+03   -.248E-22 -.496E-22 0.858E-01   0.572E-09 -.666E-09 0.692E-01
   -.233E-13 -.501E-06 0.941E+03   -.329E-06 -.494E-06 -.941E+03   -.347E-22 -.860E-22 0.858E-01   0.572E-09 0.427E-09 0.692E-01
   0.163E-05 0.148E-12 0.941E+03   0.398E-06 -.329E-06 -.941E+03   0.165E-23 -.438E-22 0.858E-01   -.667E-09 0.569E-09 0.692E-01
   0.163E-05 0.163E-05 0.941E+03   0.398E-06 0.398E-06 -.941E+03   0.364E-22 -.505E-22 0.858E-01   -.667E-09 -.667E-09 0.692E-01
   0.163E-05 -.501E-06 0.941E+03   0.398E-06 -.494E-06 -.941E+03   0.265E-22 0.744E-22 0.858E-01   -.667E-09 0.428E-09 0.692E-01
   -.501E-06 -.120E-11 0.941E+03   -.494E-06 -.329E-06 -.941E+03   -.529E-22 -.132E-22 0.858E-01   0.424E-09 0.570E-09 0.692E-01
   -.501E-06 0.163E-05 0.941E+03   -.494E-06 0.398E-06 -.941E+03   0.182E-22 -.132E-22 0.858E-01   0.425E-09 -.666E-09 0.692E-01
   -.501E-06 -.501E-06 0.941E+03   -.494E-06 -.494E-06 -.941E+03   0.132E-22 0.529E-22 0.858E-01   0.426E-09 0.427E-09 0.692E-01
   0.814E-06 0.814E-06 0.941E+03   0.952E-08 0.952E-08 -.941E+03   0.215E-22 -.993E-23 0.858E-01   -.358E-10 -.378E-10 0.692E-01
   0.814E-06 0.244E-05 0.941E+03   0.952E-08 0.668E-06 -.941E+03   -.265E-22 0.695E-22 0.858E-01   -.367E-10 -.673E-09 0.692E-01
   0.814E-06 0.313E-06 0.941E+03   0.952E-08 -.253E-06 -.941E+03   -.248E-23 -.240E-22 0.858E-01   -.358E-10 0.679E-09 0.692E-01
   0.244E-05 0.814E-06 0.941E+03   0.668E-06 0.952E-08 -.941E+03   -.190E-22 -.165E-22 0.858E-01   -.675E-09 -.379E-10 0.692E-01
   0.244E-05 0.244E-05 0.941E+03   0.668E-06 0.668E-06 -.941E+03   0.248E-22 0.438E-22 0.858E-01   -.674E-09 -.673E-09 0.692E-01
   0.244E-05 0.313E-06 0.941E+03   0.668E-06 -.253E-06 -.941E+03   -.261E-22 -.116E-22 0.858E-01   -.675E-09 0.679E-09 0.692E-01
   0.313E-06 0.814E-06 0.941E+03   -.253E-06 0.951E-08 -.941E+03   -.364E-22 0.209E-22 0.858E-01   0.680E-09 -.361E-10 0.692E-01
   0.313E-06 0.244E-05 0.941E+03   -.253E-06 0.668E-06 -.941E+03   -.174E-22 0.165E-23 0.858E-01   0.680E-09 -.673E-09 0.692E-01
   0.313E-06 0.313E-06 0.941E+03   -.253E-06 -.253E-06 -.941E+03   -.827E-22 0.480E-22 0.858E-01   0.680E-09 0.677E-09 0.692E-01
   -.342E-13 0.815E-06 -.924E+03   -.329E-06 0.954E-08 0.924E+03   -.298E-22 0.199E-22 -.426E-01   0.360E-09 -.803E-10 0.182E+00
   -.392E-13 0.244E-05 -.924E+03   -.329E-06 0.667E-06 0.924E+03   0.132E-22 -.165E-22 -.426E-01   0.358E-09 -.652E-09 0.182E+00
   -.229E-13 0.313E-06 -.924E+03   -.329E-06 -.254E-06 0.924E+03   -.529E-22 0.612E-22 -.426E-01   0.359E-09 0.388E-09 0.182E+00
   0.163E-05 0.815E-06 -.924E+03   0.399E-06 0.954E-08 0.924E+03   0.265E-22 0.265E-22 -.426E-01   -.555E-09 -.814E-10 0.182E+00
   0.163E-05 0.244E-05 -.924E+03   0.399E-06 0.667E-06 0.924E+03   -.265E-22 -.199E-22 -.426E-01   -.555E-09 -.653E-09 0.182E+00
   0.163E-05 0.313E-06 -.924E+03   0.399E-06 -.254E-06 0.924E+03   0.132E-22 0.629E-22 -.426E-01   -.556E-09 0.389E-09 0.182E+00
[...]
   0.167E-05 0.251E-05 -.459E+04   0.284E-06 0.487E-06 0.459E+04   0.926E-22 -.273E-22 0.363E+01   0.592E-09 0.630E-09 0.106E+00
   0.167E-05 0.321E-06 -.459E+04   0.284E-06 -.176E-06 0.459E+04   0.529E-22 0.298E-22 0.363E+01   0.592E-09 -.575E-09 0.106E+00
   -.514E-06 0.835E-06 -.459E+04   -.363E-06 0.433E-08 0.459E+04   -.662E-23 -.951E-22 0.363E+01   -.397E-09 0.359E-10 0.106E+00
   -.514E-06 0.251E-05 -.459E+04   -.363E-06 0.487E-06 0.459E+04   0.106E-21 0.612E-22 0.363E+01   -.396E-09 0.631E-09 0.106E+00
   -.514E-06 0.321E-06 -.459E+04   -.363E-06 -.176E-06 0.459E+04   0.265E-22 -.331E-23 0.363E+01   -.395E-09 -.576E-09 0.106E+00
   0.835E-06 -.444E-13 -.459E+04   0.432E-08 -.236E-06 0.459E+04   0.228E-21 -.170E-22 0.363E+01   0.339E-10 -.493E-09 0.106E+00
   0.835E-06 0.167E-05 -.459E+04   0.432E-08 0.284E-06 0.459E+04   0.132E-22 0.993E-23 0.363E+01   0.347E-10 0.595E-09 0.106E+00
   0.835E-06 -.514E-06 -.459E+04   0.432E-08 -.363E-06 0.459E+04   0.265E-22 0.438E-22 0.363E+01   0.339E-10 -.398E-09 0.106E+00
   0.251E-05 0.608E-13 -.459E+04   0.487E-06 -.236E-06 0.459E+04   0.496E-23 -.269E-23 0.363E+01   0.630E-09 -.493E-09 0.106E+00
   0.251E-05 0.167E-05 -.459E+04   0.487E-06 0.284E-06 0.459E+04   0.618E-22 0.331E-23 0.363E+01   0.629E-09 0.595E-09 0.106E+00
   0.251E-05 -.514E-06 -.459E+04   0.487E-06 -.363E-06 0.459E+04   0.119E-21 -.331E-22 0.363E+01   0.630E-09 -.399E-09 0.106E+00
   0.321E-06 0.621E-12 -.459E+04   -.176E-06 -.236E-06 0.459E+04   0.265E-22 -.331E-23 0.363E+01   -.572E-09 -.495E-09 0.106E+00
   0.321E-06 0.167E-05 -.459E+04   -.176E-06 0.284E-06 0.459E+04   0.794E-22 -.331E-22 0.363E+01   -.572E-09 0.596E-09 0.106E+00
   0.321E-06 -.514E-06 -.459E+04   -.176E-06 -.363E-06 0.459E+04   0.000E+00 -.121E-21 0.363E+01   -.572E-09 -.398E-09 0.106E+00
   0.854E-04 0.854E-04 -.655E+01   -.444E-12 -.245E-12 0.646E-10   -.783E-21 -.607E-21 -.398E+01   0.209E-09 0.207E-09 0.104E+02

 POSITION                                       TOTAL-FORCE (eV/Angst)
      0.00000      0.00000      0.00000        -0.000000     -0.000000      0.290255
      0.00000      3.63000      0.00000        -0.000000     -0.000000      0.290255
      0.00000      7.26000      0.00000        -0.000000      0.000000      0.290255
      3.63000      0.00000      0.00000        -0.000000      0.000000      0.290255
      3.63000      3.63000      0.00000        -0.000000     -0.000000      0.290255
      3.63000      7.26000      0.00000        -0.000000      0.000000      0.290255
      7.26000      0.00000      0.00000         0.000000     -0.000000      0.290255
      7.26000      3.63000      0.00000         0.000000      0.000000      0.290255
      7.26000      7.26000      0.00000         0.000000     -0.000000      0.290255
      1.81500      1.81500      0.00000        -0.000000     -0.000000      0.290255
      1.81500      5.44500      0.00000        -0.000000      0.000000      0.290255
      1.81500      9.07500      0.00000        -0.000000      0.000000      0.290255
      5.44500      1.81500      0.00000        -0.000000     -0.000000      0.290255
      5.44500      5.44500      0.00000        -0.000000      0.000000      0.290255
      5.44500      9.07500      0.00000         0.000000      0.000000      0.290255
      9.07500      1.81500      0.00000        -0.000000     -0.000000      0.290255
      9.07500      5.44500      0.00000        -0.000000      0.000000      0.290255
      9.07500      9.07500      0.00000        -0.000000     -0.000000      0.290255
      0.00000      1.81500      1.81500         0.000000      0.000000     -0.316215
      0.00000      5.44500      1.81500         0.000000      0.000000     -0.316215
      0.00000      9.07500      1.81500         0.000000     -0.000000     -0.316215
      3.63000      1.81500      1.81500         0.000000     -0.000000     -0.316215
      3.63000      5.44500      1.81500         0.000000     -0.000000     -0.316215
      3.63000      9.07500      1.81500        -0.000000     -0.000000     -0.316215
      7.26000      1.81500      1.81500        -0.000000      0.000000     -0.316215
      7.26000      5.44500      1.81500        -0.000000     -0.000000     -0.316215
      7.26000      9.07500      1.81500        -0.000000      0.000000     -0.316215
      1.81500      0.00000      1.81500         0.000000      0.000000     -0.316215
      1.81500      3.63000      1.81500         0.000000      0.000000     -0.316215
      1.81500      7.26000      1.81500         0.000000     -0.000000     -0.316215
      5.44500      0.00000      1.81500        -0.000000      0.000000     -0.316215
      5.44500      3.63000      1.81500        -0.000000      0.000000     -0.316215
      5.44500      7.26000      1.81500        -0.000000     -0.000000     -0.316215
      9.07500      0.00000      1.81500         0.000000     -0.000000     -0.316215
      9.07500      3.63000      1.81500        -0.000000      0.000000     -0.316215
      9.07500      7.26000      1.81500         0.000000     -0.000000     -0.316215
      0.00000      0.00000      3.57551         0.000000      0.000000      0.018775
     -0.00000      3.63000      3.57551         0.000000     -0.000000      0.018775
     -0.00000      7.26000      3.57551        -0.000000      0.000000      0.018775
      3.63000     -0.00000      3.57551         0.000000      0.000000      0.018775
      3.63000      3.63000      3.57551         0.000000      0.000000      0.018775
      3.63000      7.26000      3.57551         0.000000     -0.000000      0.018775
      7.26000     -0.00000      3.57551         0.000000     -0.000000      0.018775
      7.26000      3.63000      3.57551        -0.000000      0.000000      0.018775
      7.26000      7.26000      3.57551         0.000000     -0.000000      0.018775
      1.81500      1.81500      3.57551         0.000000     -0.000000      0.018775
      1.81500      5.44500      3.57551         0.000000     -0.000000      0.018775
      1.81500      9.07500      3.57551        -0.000000      0.000000      0.018775
      5.44500      1.81500      3.57551         0.000000      0.000000      0.018775
      5.44500      5.44500      3.57551        -0.000000     -0.000000      0.018775
      5.44500      9.07500      3.57551         0.000000     -0.000000      0.018775
      9.07500      1.81500      3.57551         0.000000      0.000000      0.018775
      9.07500      5.44500      3.57551        -0.000000      0.000000      0.018775
      9.07500      9.07500      3.57551         0.000000     -0.000000      0.018775
     -0.00000      1.81500      5.33211         0.000000      0.000000      0.022139
      0.00000      5.44500      5.33211         0.000000      0.000000      0.022139
     -0.00000      9.07500      5.33211         0.000000     -0.000000      0.022139
      3.63000      1.81500      5.33211         0.000000     -0.000000      0.022139
      3.63000      5.44500      5.33211        -0.000000      0.000000      0.022139
      3.63000      9.07500      5.33211         0.000000     -0.000000      0.022139
[...]
      3.63000      1.81500      8.84266         0.000000     -0.000000     -0.006630
      3.63000      5.44500      8.84266         0.000000     -0.000000     -0.006630
      3.63000      9.07500      8.84266         0.000000      0.000000     -0.006630
      7.26000      1.81500      8.84266        -0.000000      0.000000     -0.006630
      7.26000      5.44500      8.84266         0.000000     -0.000000     -0.006630
      7.26000      9.07500      8.84266         0.000000     -0.000000     -0.006630
      1.81500      0.00000      8.84266         0.000000      0.000000     -0.006630
      1.81500      3.63000      8.84266         0.000000     -0.000000     -0.006630
      1.81500      7.26000      8.84266         0.000000      0.000000     -0.006630
      5.44500     -0.00000      8.84266        -0.000000      0.000000     -0.006630
      5.44500      3.63000      8.84266        -0.000000      0.000000     -0.006630
      5.44500      7.26000      8.84266         0.000000     -0.000000     -0.006630
      9.07500      0.00000      8.84266        -0.000000     -0.000000     -0.006630
      9.07500      3.63000      8.84266         0.000000      0.000000     -0.006630
      9.07500      7.26000      8.84266        -0.000000     -0.000000     -0.006630
    total drift:                                0.000085      0.000085     -0.130546

  FREE ENERGIE OF THE ION-ELECTRON SYSTEM (eV)
  free  energy   TOTEN  =      -422.92774509 eV

  energy  without entropy=     -422.87673848  energy(sigma->0) =     -422.91074288

 d Force = 0.5044791E-02[-0.346E-02, 0.136E-01]  d Energy = 0.8284569E-02-0.324E-02
 d Force =-0.2193032E+04[-0.220E+04,-0.219E+04]  d Ewald  =-0.2193033E+04 0.148E-02

 stress matrix after NEB project (eV)
    -62.04224      0.00000      0.00000
      0.00000    -62.04224     -0.00000
      0.00000      0.00000    -16.50275
  FORCES: max atom, RMS     0.022139    0.012622
  FORCE total and by dimension    0.131171    0.022139
  Stress total and by dimension   89.279452   62.042243
 Conjugate gradient step on ions:
 trial-energy change:   -0.008285  1 .order   -0.005045   -0.013554    0.003465
  (g-gl).g = 0.166E-01      g.g   = 0.572E-02  gl.gl    = 0.303E-01
 g(Force)  = 0.572E-02   g(Stress)= 0.000E+00 ortho     =-0.990E-03
 gamma     =   0.54755
 trial     =   2.61564
 opt step  =   2.35299  (harmonic =   2.08313) maximal distance =0.00000000
 next E    =  -422.927916   (d E  =  -0.00846)

 reached required accuracy - stopping structural energy minimisation