 vasp.6.3.2 27Jun22 (build Aug 17 2022 15:43:34) complex

 executed on           tv2STDVTST date 2025.01.21  18:51:36

 INCAR:
   ISTART = 0
   ICHARG = 2
   IPIPOL = 3
   IVDW = 11
   IDIPOL = 3
   IVDW = 11
   ISPIN = 2
   ENCUT = 400
   PREC = Normal
   EDIFF = 2E-04
   GGA = PE
   ISMEAR = 1
   SIGMA = 0.2
   LREAL = .FALSE.
   ISYM = 1
   NSW = 800
   IBRION = 2
   POTIM = 0.5
   ISIF = 2
   EDIFFG = -.03
   NPAR = 4
   LWAVE = .FALSE.
   LCHARG = .FALSE.

 POTCAR:    PAW_PBE Cu 22Jun2005
|           W    W    AA    RRRRR   N    N  II  N    N   GGGG   !!!           |
|           W    W   A  A   R    R  NN   N  II  NN   N  G    G  !!!           |
|           W    W  A    A  R    R  N N  N  II  N N  N  G       !!!           |
|           W WW W  AAAAAA  RRRRR   N  N N  II  N  N N  G  GGG   !            |
|           WW  WW  A    A  R   R   N   NN  II  N   NN  G    G                |
|           W    W  A    A  R    R  N    N  II  N    N   GGGG   !!!           |
|     You use a magnetic or noncollinear calculation, but did not specify     |
|     the initial magnetic moment with the MAGMOM tag. Note that a            |
|     default of 1 will be used for all atoms. This ferromagnetic setup       |
|     may break the symmetry of the crystal, in particular it may rule        |
|     out finding an antiferromagnetic solution. Thence, we recommend         |
|     setting the initial magnetic moment manually or verifying carefully     |
|     that this magnetic setup is desired.                                    |

   TITEL  = PAW_PBE Cu 22Jun2005
   POMASS =   63.546; ZVAL   =   11.000    mass and valenz
   ENMAX  =  295.446; ENMIN  =  221.585 eV

  PAW_PBE Cu 22Jun2005                  :

 POSCAR: FCC Cu
  positions in cartesian coordinates
 exchange correlation table for  LEXCH =        8
   RHO(1)=    0.500       N(1)  =     2000
   RHO(2)=  100.500       N(2)  =     4000

 VTST: version 4.2, (08/11/21)

 CHAIN: initializing optimizer

 OPT: Using VASP Conjugate-Gradient optimizer
 CHAIN: Read ICHAIN            0

 POSCAR: FCC Cu
  positions in cartesian coordinates

 ion  position               nearest neighbor table
   1  0.000  0.000  0.000-   7 2.57   4 2.57   8 2.57   2 2.57   6 2.57   3 2.57  16 2.57  12 2.57
                            10 2.57
   2  0.000  0.333  0.000-   4 2.57   5 2.57   1 2.57   3 2.57   8 2.57   9 2.57  10 2.57  17 2.57
                            11 2.57
   3  1.000  0.667  0.000-   7 2.57   9 2.57   1 2.57   2 2.57   5 2.57   6 2.57  18 2.57  12 2.57
                            11 2.57
   4  0.333  0.000  0.000-   2 2.57   6 2.57   1 2.57   5 2.57   9 2.57   7 2.57  10 2.57  15 2.57
                            13 2.57
   5  0.333  0.333  0.000-   2 2.57   8 2.57   4 2.57   7 2.57   3 2.57   6 2.57  11 2.57  13 2.57
                            14 2.57
   6  0.333  0.667  0.000-   4 2.57   9 2.57   1 2.57   8 2.57   5 2.57   3 2.57  12 2.57  15 2.57
                            14 2.57
   7  0.667  0.000  0.000-   8 2.57   3 2.57   1 2.57   5 2.57   9 2.57   4 2.57  18 2.57  13 2.57
                            16 2.57
   8  0.667  0.333  0.000-   7 2.57   5 2.57   1 2.57   6 2.57   2 2.57   9 2.57  14 2.57  16 2.57
                            17 2.57
   9  0.667  0.667  0.000-   3 2.57   6 2.57   4 2.57   7 2.57   2 2.57   8 2.57  15 2.57  18 2.57
                            17 2.57
  10  0.111  0.111  0.082-  16 2.57  13 2.57  17 2.57  11 2.57  15 2.57  12 2.57  19 2.57   4 2.57
                             2 2.57  21 2.57  25 2.57   1 2.57
  11  0.111  0.444  0.082-  13 2.57  14 2.57  10 2.57  12 2.57  17 2.57  18 2.57  20 2.57   5 2.57
                            19 2.57   2 2.57   3 2.57  26 2.57
  12  0.111  0.778  0.082-  16 2.57  18 2.57  10 2.57  11 2.57  14 2.57  15 2.57  21 2.57   1 2.57
                             6 2.57   3 2.57  20 2.57  27 2.57
  13  0.444  0.111  0.082-  11 2.57  15 2.57  10 2.57  14 2.57  18 2.57  16 2.57  22 2.57   5 2.57
                            24 2.57  19 2.57   7 2.57   4 2.57
  14  0.444  0.444  0.082-  11 2.57  17 2.57  13 2.57  16 2.57  12 2.57  15 2.57  23 2.57   8 2.57
                            22 2.57  20 2.57   5 2.57   6 2.57
  15  0.444  0.778  0.082-  13 2.57  18 2.57  10 2.57  17 2.57  14 2.57  12 2.57  24 2.57   9 2.57
                             4 2.57   6 2.57  23 2.57  21 2.57
  16  0.778  0.111  0.082-  17 2.57  12 2.57  10 2.57  14 2.57  18 2.57  13 2.57   1 2.57  25 2.57
                             8 2.57  27 2.57   7 2.57  22 2.57
  17  0.778  0.444  0.082-  16 2.57  14 2.57  10 2.57  15 2.57  11 2.57  18 2.57  26 2.57  25 2.57
                             2 2.57  23 2.57   8 2.57   9 2.57
  18  0.778  0.778  0.082-  12 2.57  15 2.57  13 2.57  16 2.57  11 2.57  17 2.57  27 2.57   3 2.57
                             7 2.57  24 2.57   9 2.57  26 2.57
  19  0.222  0.222  0.165-  25 2.57  22 2.57  26 2.57  20 2.57  21 2.57  24 2.57  10 2.57  29 2.57
                            11 2.57  31 2.57  13 2.57  32 2.57
  20  0.222  0.556  0.165-  22 2.57  23 2.57  19 2.57  21 2.57  26 2.57  27 2.57  11 2.57  32 2.57
                            14 2.57  12 2.57  30 2.57  33 2.57
  21  0.222  0.889  0.165-  25 2.57  19 2.57  20 2.57  23 2.57  24 2.57  27 2.57  12 2.57  28 2.57
                            33 2.57  10 2.57  31 2.57  15 2.57
  22  0.556  0.222  0.165-  27 2.57  20 2.57  24 2.57  19 2.57  23 2.57  25 2.57  13 2.57  32 2.57
                            14 2.57  34 2.57  35 2.57  16 2.57
  23  0.556  0.556  0.165-  20 2.57  26 2.57  25 2.57  22 2.57  21 2.57  24 2.57  14 2.57  35 2.57
                            33 2.57  17 2.57  15 2.57  36 2.57
  24  0.556  0.889  0.165-  27 2.57  22 2.57  19 2.57  26 2.57  23 2.57  21 2.57  15 2.57  36 2.57
                            13 2.57  18 2.57  34 2.57  31 2.57
  25  0.889  0.222  0.165-  26 2.57  21 2.57  19 2.57  23 2.57  22 2.57  27 2.57  16 2.57  17 2.57
                            28 2.57  10 2.57  29 2.57  35 2.57
  26  0.889  0.556  0.165-  27 2.57  25 2.57  23 2.57  19 2.57  24 2.57  20 2.57  17 2.57  29 2.57
                            36 2.57  30 2.57  18 2.57  11 2.57
  27  0.889  0.889  0.165-  24 2.57  22 2.57  26 2.57  25 2.57  20 2.57  21 2.57  18 2.57  34 2.57
                            30 2.57  16 2.57  12 2.57  28 2.57
  28  0.000  0.000  0.247-  34 2.57  31 2.57  35 2.57  29 2.57  33 2.57  30 2.57  43 2.57  21 2.57
                            25 2.57  39 2.57  37 2.57  27 2.57
  29  0.000  0.333  0.247-  31 2.57  32 2.57  28 2.57  30 2.57  35 2.57  36 2.57  19 2.57  26 2.57
                            37 2.57  44 2.57  25 2.57  38 2.57
  30  1.000  0.667  0.247-  34 2.57  36 2.57  28 2.57  29 2.57  32 2.57  33 2.57  45 2.57  27 2.57
                            39 2.57  26 2.57  38 2.57  20 2.57
  31  0.333  0.000  0.247-  29 2.57  33 2.57  28 2.57  32 2.57  36 2.57  34 2.57  37 2.57  19 2.57
                            42 2.57  40 2.57  24 2.57  21 2.57
  32  0.333  0.333  0.247-  29 2.57  35 2.57  31 2.57  34 2.57  30 2.57  33 2.57  38 2.57  22 2.57
                            20 2.57  40 2.57  41 2.57  19 2.57
  33  0.333  0.667  0.247-  31 2.57  36 2.57  28 2.57  35 2.57  32 2.57  30 2.57  21 2.57  23 2.57
                            39 2.57  42 2.57  41 2.57  20 2.57
  34  0.667  0.000  0.247-  35 2.57  30 2.57  28 2.57  32 2.57  36 2.57  31 2.57  27 2.57  22 2.57
                            45 2.57  40 2.57  43 2.57  24 2.57
  35  0.667  0.333  0.247-  34 2.57  32 2.57  28 2.57  33 2.57  29 2.57  36 2.57  41 2.57  23 2.57
                            43 2.57  25 2.57  44 2.57  22 2.57
  36  0.667  0.667  0.247-  30 2.57  33 2.57  31 2.57  34 2.57  29 2.57  35 2.57  42 2.57  24 2.57
                            26 2.57  45 2.57  44 2.57  23 2.57
  37  0.111  0.111  0.329-  43 2.57  40 2.57  44 2.57  38 2.57  42 2.57  39 2.57  46 2.57  31 2.57
                            29 2.57  48 2.57  52 2.57  28 2.57
  38  0.111  0.444  0.329-  40 2.57  41 2.57  37 2.57  39 2.57  44 2.57  45 2.57  47 2.57  32 2.57
                            46 2.57  29 2.57  30 2.57  53 2.57
  39  0.111  0.778  0.329-  43 2.57  45 2.57  37 2.57  38 2.57  41 2.57  42 2.57  48 2.57  28 2.57
                            33 2.57  30 2.57  47 2.57  54 2.57
  40  0.444  0.111  0.329-  38 2.57  42 2.57  37 2.57  41 2.57  45 2.57  43 2.57  49 2.57  32 2.57
                            51 2.57  46 2.57  34 2.57  31 2.57
  41  0.444  0.444  0.329-  38 2.57  44 2.57  40 2.57  43 2.57  39 2.57  42 2.57  50 2.57  35 2.57
                            49 2.57  47 2.57  32 2.57  33 2.57
  42  0.444  0.778  0.329-  40 2.57  45 2.57  37 2.57  44 2.57  41 2.57  39 2.57  51 2.57  36 2.57
                            31 2.57  33 2.57  50 2.57  48 2.57
  43  0.778  0.111  0.329-  44 2.57  39 2.57  37 2.57  41 2.57  45 2.57  40 2.57  28 2.57  52 2.57
                            35 2.57  54 2.57  34 2.57  49 2.57
  44  0.778  0.444  0.329-  43 2.57  41 2.57  37 2.57  42 2.57  38 2.57  45 2.57  53 2.57  52 2.57
                            29 2.57  50 2.57  35 2.57  36 2.57
  45  0.778  0.778  0.329-  39 2.57  42 2.57  40 2.57  43 2.57  38 2.57  44 2.57  54 2.57  30 2.57
                            34 2.57  51 2.57  36 2.57  53 2.57
  46  0.222  0.222  0.411-  52 2.57  49 2.57  53 2.57  47 2.57  48 2.57  51 2.57  37 2.57  38 2.57
                            40 2.57
  47  0.222  0.556  0.411-  49 2.57  50 2.57  46 2.57  48 2.57  53 2.57  54 2.57  38 2.57  41 2.57
                            39 2.57
  48  0.222  0.889  0.411-  52 2.57  46 2.57  47 2.57  50 2.57  51 2.57  54 2.57  39 2.57  37 2.57
                            42 2.57
  49  0.556  0.222  0.411-  54 2.57  47 2.57  51 2.57  46 2.57  50 2.57  52 2.57  40 2.57  41 2.57
                            43 2.57
  50  0.556  0.556  0.411-  47 2.57  53 2.57  52 2.57  49 2.57  48 2.57  51 2.57  41 2.57  44 2.57
                            42 2.57
  51  0.556  0.889  0.411-  54 2.57  49 2.57  46 2.57  53 2.57  50 2.57  48 2.57  42 2.57  40 2.57
                            45 2.57
  52  0.889  0.222  0.411-  53 2.57  48 2.57  46 2.57  50 2.57  49 2.57  54 2.57  43 2.57  44 2.57
                            37 2.57
  53  0.889  0.556  0.411-  54 2.57  52 2.57  50 2.57  46 2.57  51 2.57  47 2.57  44 2.57  45 2.57
                            38 2.57
  54  0.889  0.889  0.411-  51 2.57  49 2.57  53 2.57  52 2.57  47 2.57  48 2.57  45 2.57  43 2.57
                            39 2.57

  LATTYP: Found a hexagonal cell.
 ALAT       =     7.7003932000
 C/A-ratio  =     3.3087801982

  Lattice vectors:

 A1 = (  -3.8501966000,  -6.6687361303,   0.0000000000)
 A2 = (   7.7003931999,   0.0000000000,   0.0000000000)
 A3 = (   0.0000000000,   0.0000000000,  25.4789085388)

Analysis of symmetry for initial positions (statically):
 Subroutine PRICEL returns following result:

[...]

   9 primitive cells build up your supercell.

 Routine SETGRP: Setting up the symmetry group for a
 hexagonal supercell.

 Subroutine GETGRP returns: Found 12 space group operations
 (whereof  6 operations were pure point group operations)
 out of a pool of 24 trial point group operations.

The static configuration has the point symmetry C_3v.
[...]
     42      -3.0933      1.00000
     43      -3.0130      1.00000
     44      -3.0130      1.00000
     45      -3.0130      1.00000
     46      -2.9262      1.00000
     47      -2.9262      1.00000
     48      -2.9262      1.00000
     49      -2.8867      1.00000
     50      -2.8867      1.00000
     51      -2.8867      1.00000
     52      -2.7924      1.00000
     53      -2.7924      1.00000
     54      -2.7924      1.00000
     55      -2.6807      1.00000
     56      -2.6807      1.00000
     57      -2.6807      1.00000
     58      -2.6650      1.00000
     59      -2.6650      1.00000
     60      -2.6650      1.00000
[...]
    370       9.6476      0.00000
    371       9.6476      0.00000
    372       9.6476      0.00000
    373       9.8724      0.00000
    374       9.8724      0.00000
    375       9.8725      0.00000
    376      10.0234      0.00000
    377      10.0234      0.00000
    378      10.0234      0.00000
    379      10.0796      0.00000
    380      10.0796      0.00000
    381      10.0797      0.00000
    382      10.2754      0.00000
    383      10.2754      0.00000
    384      10.2755      0.00000

[...]

 soft charge-density along one line, spin component           2
         0         1         2         3         4         5         6         7         8         9
 total charge-density along one line

------------------------ aborting loop because EDIFF is reached ----------------------------------------

 DIPCOR: dipole corrections for dipol
 direction  3 min pos   182,
 dipolmoment           0.000000      0.000000     -0.018467 electrons x Angstroem
 Tr[quadrupol]     -5788.941515

 energy correction for charged system         0.000000 eV
 dipol+quadrupol energy correction            0.000024 eV
 added-field ion interaction          0.000000 eV  (added to PSCEN)

  *************** adding dipol energy to TOTEN NOW ****************

         DFTD3 V3.0 Rev 1
 Edisp (eV)  -21.59196

 E6    (eV) :    -8.8468
 E8    (eV) :   -12.7451
 % E8        : 59.03

  FORCE on cell =-STRESS in cart. coord.  units (eV):
  Direction    XX          YY          ZZ          XY          YZ          ZX
  Alpha Z  1629.90573  1629.90573  1629.90573
  Ewald  339714.43256339714.43256************     0.00000     0.00000     0.00000
  Hartree360374.24150360374.24150************     0.00000     0.00000    -0.00000
  E(xc)   -3470.28940 -3470.28874 -3474.87626    -0.00057     0.00001     0.00002
  Local  ************************720282.09016     0.02683    -0.00001    -0.00002
  n-local -1165.21783 -1157.05287 -1167.36595     7.07500     0.28332    -0.49334
  augment  5108.78868  5108.80958  5124.01096    -0.01810     0.00027     0.00046
  Kinetic  4840.58826  4837.76672  4869.48435    -2.44272     1.74162    -3.01608
  Fock        0.00000     0.00000     0.00000     0.00000     0.00000     0.00000
  vdW       -26.48208   -26.48208   -20.18384    -0.00000     0.00000     0.00000
  Total     -33.77273   -33.77273    -8.07978    -0.00000     0.00000    -0.00000
  in kB     -41.35610   -41.35610    -9.89402    -0.00000     0.00000    -0.00000

 VOLUME and BASIS-vectors are now :
  energy-cutoff  :      400.00
  volume of cell :     1308.39
      direct lattice vectors                 reciprocal lattice vectors
     7.700393200  0.000000000  0.000000000     0.129863498 -0.074976726  0.000000000
     3.850196600  6.668736130  0.000000000     0.000000000  0.149953452  0.000000000
     0.000000000  0.000000000 25.478908539     0.000000000  0.000000000  0.039248149

  length of vectors
     7.700393200  7.700393200 25.478908539     0.149953452  0.149953452  0.039248149

 FORCES acting on ions
    electron-ion (+dipol)            ewald-force                    non-local-force                 convergence-correction
   -.119E-07 -.640E-08 0.491E+04   0.804E-07 -.216E-06 -.491E+04   -.781E-17 0.564E-17 -.208E+01   -.594E-08 -.342E-08 -.821E-02
   0.171E-04 0.391E-04 0.491E+04   -.200E-06 0.441E-06 -.491E+04   -.260E-17 -.651E-17 -.208E+01   -.561E-08 -.347E-08 -.821E-02
   -.200E-04 -.361E-04 0.491E+04   0.279E-06 -.310E-06 -.491E+04   -.113E-16 0.173E-17 -.208E+01   -.590E-08 -.362E-08 -.821E-02
   0.427E-04 -.279E-05 0.491E+04   0.189E-06 -.194E-06 -.491E+04   -.217E-17 0.997E-17 -.208E+01   -.580E-08 -.314E-08 -.821E-02
   0.164E-05 0.267E-05 0.491E+04   0.338E-07 0.441E-06 -.491E+04   -.390E-17 0.134E-16 -.208E+01   -.606E-08 -.353E-08 -.821E-02
   0.216E-04 -.366E-04 0.491E+04   -.239E-06 -.235E-06 -.491E+04   -.564E-17 0.130E-16 -.208E+01   -.614E-08 -.357E-08 -.821E-02
   -.430E-04 -.643E-06 0.491E+04   -.248E-06 -.117E-06 -.491E+04   0.824E-17 -.434E-18 -.208E+01   -.607E-08 -.328E-08 -.821E-02
   -.188E-04 0.397E-04 0.491E+04   0.189E-06 0.444E-06 -.491E+04   0.477E-17 0.304E-17 -.208E+01   -.619E-08 -.357E-08 -.821E-02
   -.171E-05 -.135E-05 0.491E+04   -.167E-07 -.286E-06 -.491E+04   0.113E-16 0.000E+00 -.208E+01   -.585E-08 -.337E-08 -.821E-02
   0.304E-04 0.188E-04 0.298E+04   -.916E-07 -.262E-06 -.298E+04   0.678E-18 0.163E-18 -.482E+00   0.212E-07 0.122E-07 -.793E-01
   0.366E-05 -.252E-06 0.298E+04   -.155E-06 0.548E-06 -.298E+04   0.922E-18 0.217E-18 -.482E+00   0.215E-07 0.132E-07 -.793E-01
   0.132E-05 -.377E-04 0.298E+04   0.253E-06 -.298E-06 -.298E+04   -.108E-18 0.271E-18 -.482E+00   0.220E-07 0.139E-07 -.793E-01
   0.833E-06 0.715E-05 0.298E+04   0.821E-07 -.109E-06 -.298E+04   -.623E-18 -.108E-18 -.482E+00   0.220E-07 0.120E-07 -.793E-01
   -.519E-05 0.108E-07 0.298E+04   -.432E-07 0.603E-06 -.298E+04   0.000E+00 0.379E-18 -.482E+00   0.228E-07 0.132E-07 -.793E-01
   0.238E-04 -.175E-04 0.298E+04   -.404E-06 -.322E-06 -.298E+04   0.163E-18 0.271E-19 -.482E+00   0.225E-07 0.127E-07 -.793E-01
   -.348E-04 0.206E-04 0.298E+04   -.902E-08 -.790E-07 -.298E+04   -.163E-17 0.651E-18 -.482E+00   0.233E-07 0.123E-07 -.793E-01
   -.222E-05 0.339E-04 0.298E+04   0.132E-06 0.410E-06 -.298E+04   -.813E-18 0.271E-18 -.482E+00   0.221E-07 0.131E-07 -.793E-01
   -.292E-04 -.159E-04 0.298E+04   -.404E-07 -.494E-06 -.298E+04   -.130E-17 0.271E-18 -.482E+00   0.217E-07 0.123E-07 -.793E-01
   0.346E-04 0.204E-04 0.999E+03   -.720E-07 -.212E-07 -.998E+03   0.542E-19 0.000E+00 -.228E+00   0.949E-06 0.548E-06 0.252E-01
   0.177E-05 -.357E-04 0.999E+03   -.140E-06 0.881E-06 -.998E+03   0.949E-19 0.271E-19 -.228E+00   0.949E-06 0.548E-06 0.252E-01
   0.434E-04 -.245E-04 0.999E+03   -.436E-06 -.471E-06 -.998E+03   0.678E-19 -.190E-18 -.228E+00   0.953E-06 0.546E-06 0.252E-01
   -.301E-04 0.219E-04 0.999E+03   0.241E-06 0.374E-06 -.998E+03   -.122E-18 0.000E+00 -.228E+00   0.949E-06 0.548E-06 0.252E-01
   0.761E-05 0.651E-05 0.999E+03   -.123E-06 0.436E-06 -.998E+03   0.637E-18 0.271E-19 -.228E+00   0.948E-06 0.547E-06 0.252E-01
   -.839E-06 -.866E-05 0.999E+03   -.918E-06 -.340E-06 -.998E+03   0.203E-18 0.461E-18 -.228E+00   0.949E-06 0.549E-06 0.252E-01
   -.158E-05 0.492E-04 0.999E+03   -.209E-06 -.354E-06 -.998E+03   -.163E-18 0.542E-19 -.228E+00   0.949E-06 0.552E-06 0.252E-01
   -.615E-05 0.680E-05 0.999E+03   0.222E-06 -.280E-07 -.998E+03   0.379E-18 0.108E-18 -.228E+00   0.950E-06 0.547E-06 0.252E-01
   -.282E-04 -.228E-04 0.999E+03   0.178E-05 -.384E-06 -.998E+03   0.217E-18 -.217E-18 -.228E+00   0.945E-06 0.546E-06 0.252E-01
   0.593E-08 0.342E-08 -.987E+03   0.657E-07 -.435E-06 0.987E+03   0.108E-18 -.271E-19 0.250E+00   -.779E-06 -.449E-06 -.236E+00
   0.162E-04 0.321E-04 -.987E+03   -.210E-06 0.405E-06 0.987E+03   0.699E-19 -.847E-21 0.250E+00   -.778E-06 -.454E-06 -.236E+00
   -.149E-04 -.319E-04 -.987E+03   0.546E-06 -.295E-06 0.987E+03   0.949E-19 0.313E-19 0.250E+00   -.775E-06 -.447E-06 -.236E+00
   0.363E-04 -.774E-07 -.987E+03   0.309E-07 -.327E-06 0.987E+03   0.169E-19 0.186E-19 0.250E+00   -.782E-06 -.446E-06 -.236E+00
   0.170E-05 0.269E-05 -.987E+03   -.135E-07 0.559E-06 0.987E+03   0.737E-19 -.339E-19 0.250E+00   -.779E-06 -.450E-06 -.236E+00
   0.164E-04 -.329E-04 -.987E+03   -.329E-06 -.819E-07 0.987E+03   0.271E-19 0.136E-19 0.250E+00   -.783E-06 -.448E-06 -.236E+00
   -.367E-04 0.170E-05 -.987E+03   -.219E-06 -.437E-07 0.987E+03   0.949E-19 0.000E+00 0.250E+00   -.775E-06 -.447E-06 -.236E+00
   -.181E-04 0.333E-04 -.987E+03   0.228E-06 0.436E-06 0.987E+03   0.610E-19 -.229E-19 0.250E+00   -.779E-06 -.454E-06 -.236E+00
   -.204E-05 -.154E-05 -.987E+03   -.165E-06 -.310E-06 0.987E+03   0.678E-19 -.136E-19 0.250E+00   -.778E-06 -.449E-06 -.236E+00
   0.266E-04 0.166E-04 -.297E+04   -.108E-06 -.290E-06 0.297E+04   -.651E-18 -.542E-18 0.514E+00   -.213E-05 -.123E-05 -.432E+00
   0.364E-05 -.529E-06 -.297E+04   -.149E-06 0.557E-06 0.297E+04   -.114E-17 -.325E-18 0.514E+00   -.214E-05 -.122E-05 -.432E+00
   0.138E-05 -.335E-04 -.297E+04   0.267E-06 -.282E-06 0.297E+04   -.596E-18 -.130E-17 0.514E+00   -.213E-05 -.122E-05 -.432E+00
   0.586E-06 0.727E-05 -.297E+04   0.668E-07 -.114E-06 0.297E+04   0.922E-18 0.000E+00 0.514E+00   -.213E-05 -.124E-05 -.432E+00
   -.541E-05 -.122E-06 -.297E+04   -.462E-07 0.626E-06 0.297E+04   -.293E-17 -.542E-18 0.514E+00   -.212E-05 -.123E-05 -.432E+00
   0.192E-04 -.152E-04 -.297E+04   -.436E-06 -.312E-06 0.297E+04   -.195E-17 0.108E-18 0.514E+00   -.213E-05 -.123E-05 -.432E+00
   -.311E-04 0.185E-04 -.297E+04   0.204E-07 -.918E-07 0.297E+04   -.325E-17 0.976E-18 0.514E+00   -.212E-05 -.123E-05 -.432E+00
   -.250E-05 0.288E-04 -.297E+04   0.127E-06 0.400E-06 0.297E+04   -.119E-17 0.108E-18 0.514E+00   -.213E-05 -.123E-05 -.432E+00
   -.254E-04 -.137E-04 -.297E+04   -.267E-07 -.494E-06 0.297E+04   0.651E-18 0.867E-18 0.514E+00   -.213E-05 -.123E-05 -.432E+00
   0.334E-04 0.197E-04 -.494E+04   -.112E-06 -.886E-07 0.494E+04   -.173E-17 0.173E-17 0.241E+01   -.158E-05 -.912E-06 -.378E+00
   0.154E-05 -.345E-04 -.494E+04   -.145E-06 0.853E-06 0.494E+04   0.867E-18 -.173E-17 0.241E+01   -.158E-05 -.910E-06 -.378E+00
   0.402E-04 -.225E-04 -.494E+04   -.427E-06 -.389E-06 0.494E+04   0.160E-16 0.173E-17 0.241E+01   -.158E-05 -.909E-06 -.378E+00
   -.291E-04 0.211E-04 -.494E+04   0.261E-06 0.302E-06 0.494E+04   -.113E-16 0.173E-17 0.241E+01   -.158E-05 -.911E-06 -.378E+00
   0.570E-05 0.543E-05 -.494E+04   -.152E-06 0.452E-06 0.494E+04   -.867E-18 0.173E-17 0.241E+01   -.158E-05 -.911E-06 -.378E+00
   -.101E-05 -.683E-05 -.494E+04   -.911E-06 -.317E-06 0.494E+04   0.000E+00 -.867E-17 0.241E+01   -.158E-05 -.912E-06 -.378E+00
   -.143E-05 0.453E-04 -.494E+04   -.212E-06 -.471E-06 0.494E+04   0.781E-17 0.347E-17 0.241E+01   -.158E-05 -.917E-06 -.378E+00
   -.462E-05 0.577E-05 -.494E+04   0.233E-06 -.295E-08 0.494E+04   -.130E-17 0.173E-17 0.241E+01   -.158E-05 -.911E-06 -.378E+00
   -.248E-04 -.209E-04 -.494E+04   0.167E-05 -.303E-06 0.494E+04   0.121E-16 0.347E-17 0.241E+01   -.157E-05 -.909E-06 -.378E+00
   0.144E-04 0.503E-04 0.670E+01   0.728E-13 0.204E-12 -.218E-10   0.171E-17 0.468E-16 0.345E+01   -.317E-04 -.183E-04 -.997E+01

 POSITION                                       TOTAL-FORCE (eV/Angst)
      0.00000      0.00000      0.00000         0.000000     -0.000000      0.206891
      1.28340      2.22291      0.00000         0.000000     -0.000000      0.206891
     10.26719      4.44582      0.00000         0.000000     -0.000000      0.206891
      2.56680      0.00000      0.00000         0.000000     -0.000000      0.206891
      3.85020      2.22291      0.00000         0.000000     -0.000000      0.206891
      5.13360      4.44582      0.00000         0.000000     -0.000000      0.206891
      5.13360      0.00000      0.00000         0.000000     -0.000000      0.206891
      6.41699      2.22291      0.00000         0.000000     -0.000000      0.206891
      7.70039      4.44582      0.00000         0.000000     -0.000000      0.206891
      1.28340      0.74097      2.09578         0.000000      0.000000     -0.192566
      2.56680      2.96388      2.09578         0.000000      0.000000     -0.192566
      3.85020      5.18679      2.09578        -0.000000      0.000000     -0.192566
      3.85020      0.74097      2.09578         0.000000      0.000000     -0.192566
      5.13360      2.96388      2.09578        -0.000000      0.000000     -0.192566
      6.41699      5.18679      2.09578        -0.000000      0.000000     -0.192566
      6.41699      0.74097      2.09578         0.000000      0.000000     -0.192566
      7.70039      2.96388      2.09578         0.000000      0.000000     -0.192566
      8.98379      5.18679      2.09578         0.000000      0.000000     -0.192566
      2.56680      1.48194      4.14617         0.000000      0.000000      0.001327
      3.85020      3.70485      4.14617        -0.000000      0.000000      0.001327
      5.13360      5.92777      4.14617        -0.000000      0.000000      0.001327
      5.13360      1.48194      4.14617         0.000000     -0.000000      0.001327
      6.41699      3.70485      4.14617        -0.000000     -0.000000      0.001327
      7.70039      5.92777      4.14617        -0.000000      0.000000      0.001327
      7.70039      1.48194      4.14617        -0.000000      0.000000      0.001327
      8.98379      3.70485      4.14617        -0.000000      0.000000      0.001327
     10.26719      5.92777      4.14617         0.000000      0.000000      0.001327
      0.00000     -0.00000      6.19508         0.000000     -0.000000     -0.004539
      1.28340      2.22291      6.19508        -0.000000     -0.000000     -0.004539
     10.26719      4.44582      6.19508        -0.000000     -0.000000     -0.004539
      2.56680     -0.00000      6.19508        -0.000000     -0.000000     -0.004539
      3.85020      2.22291      6.19508        -0.000000     -0.000000     -0.004539
      5.13360      4.44582      6.19508        -0.000000     -0.000000     -0.004539
      5.13360      0.00000      6.19508         0.000000     -0.000000     -0.004539
      6.41699      2.22291      6.19508        -0.000000     -0.000000     -0.004539
      7.70039      4.44582      6.19508        -0.000000      0.000000     -0.004539
      1.28340      0.74097      8.25098        -0.000000      0.000000      0.004148
      2.56680      2.96388      8.25098        -0.000000      0.000000      0.004148
      3.85020      5.18679      8.25098        -0.000000      0.000000      0.004148
      3.85020      0.74097      8.25098        -0.000000      0.000000      0.004148
      5.13360      2.96388      8.25098        -0.000000      0.000000      0.004148
      6.41699      5.18679      8.25098        -0.000000     -0.000000      0.004148
      6.41699      0.74097      8.25098        -0.000000      0.000000      0.004148
      7.70039      2.96388      8.25098        -0.000000     -0.000000      0.004148
      8.98379      5.18679      8.25098        -0.000000     -0.000000      0.004148
      2.56680      1.48194     10.29902        -0.000000      0.000000     -0.015261
      3.85020      3.70485     10.29902         0.000000      0.000000     -0.015261
      5.13360      5.92777     10.29902         0.000000     -0.000000     -0.015261
      5.13360      1.48194     10.29902         0.000000      0.000000     -0.015261
      6.41699      3.70485     10.29902         0.000000     -0.000000     -0.015261
      7.70039      5.92777     10.29902         0.000000      0.000000     -0.015261
      7.70039      1.48194     10.29902         0.000000      0.000000     -0.015261
      8.98379      3.70485     10.29902         0.000000      0.000000     -0.015261
     10.26719      5.92777     10.29902         0.000000      0.000000     -0.015261
    total drift:                               -0.000017      0.000032      0.178901

  FREE ENERGIE OF THE ION-ELECTRON SYSTEM (eV)
  free  energy   TOTEN  =      -215.22279592 eV

  energy  without entropy=     -215.20709905  energy(sigma->0) =     -215.21756363

 d Force = 0.1374684E-02[ 0.636E-03, 0.211E-02]  d Energy = 0.1776834E-02-0.402E-03
 d Force =-0.3890942E+03[-0.389E+03,-0.389E+03]  d Ewald  =-0.3890942E+03 0.760E-05

 stress matrix after NEB project (eV)
    -33.77273     -0.00000     -0.00000
     -0.00000    -33.77273      0.00000
     -0.00000      0.00000     -8.07978
  FORCES: max atom, RMS     0.015261    0.006739
  FORCE total and by dimension    0.049519    0.015261
  Stress total and by dimension   48.440456   33.772733
 Conjugate gradient step on ions:
 trial-energy change:   -0.001777  1 .order   -0.001375   -0.002113   -0.000636
  (g-gl).g = 0.872E-03      g.g   = 0.861E-03  gl.gl    = 0.202E-02
 g(Force)  = 0.861E-03   g(Stress)= 0.000E+00 ortho     =-0.692E-04
 gamma     =   0.43243
 trial     =   2.54446
 opt step  =   3.63962  (harmonic =   3.63962) maximal distance =0.00343487
 next E    =  -215.222531   (d E  =  -0.00151)

 reached required accuracy - stopping structural energy minimisation