 vasp.6.3.2 27Jun22 (build Aug 17 2022 15:43:34) complex

 executed on           tv2STDVTST date 2025.01.17  11:41:27

 INCAR:
   ISTART = 0
   ICHARG = 2
   IPIPOL = 3
   IVDW = 11
   IDIPOL = 3
   IVDW = 11
   ISPIN = 2
   ENCUT = 400
   PREC = Normal
   EDIFF = 2E-04
   GGA = PE
   ISMEAR = 1
   SIGMA = 0.2
   LREAL = .FALSE.
   ISYM = 1
   NSW = 800
   IBRION = 2
   POTIM = 0.5
   ISIF = 2
   EDIFFG = -.03
   NPAR = 4
   LWAVE = .FALSE.
   LCHARG = .FALSE.

 POTCAR:    PAW_PBE Cu 22Jun2005
|           W    W    AA    RRRRR   N    N  II  N    N   GGGG   !!!           |
|           W    W   A  A   R    R  NN   N  II  NN   N  G    G  !!!           |
|           W    W  A    A  R    R  N N  N  II  N N  N  G       !!!           |
|           W WW W  AAAAAA  RRRRR   N  N N  II  N  N N  G  GGG   !            |
|           WW  WW  A    A  R   R   N   NN  II  N   NN  G    G                |
|           W    W  A    A  R    R  N    N  II  N    N   GGGG   !!!           |
|     You use a magnetic or noncollinear calculation, but did not specify     |
|     the initial magnetic moment with the MAGMOM tag. Note that a            |
|     default of 1 will be used for all atoms. This ferromagnetic setup       |
|     may break the symmetry of the crystal, in particular it may rule        |
|     out finding an antiferromagnetic solution. Thence, we recommend         |
|     setting the initial magnetic moment manually or verifying carefully     |
|     that this magnetic setup is desired.                                    |

   TITEL  = PAW_PBE Cu 22Jun2005
   POMASS =   63.546; ZVAL   =   11.000    mass and valenz
   ENMAX  =  295.446; ENMIN  =  221.585 eV

  PAW_PBE Cu 22Jun2005                  :

 POSCAR: FCC Cu
  positions in cartesian coordinates
  velocities in cartesian coordinates
 exchange correlation table for  LEXCH =        8
   RHO(1)=    0.500       N(1)  =     2000
   RHO(2)=  100.500       N(2)  =     4000

 VTST: version 4.2, (08/11/21)

 CHAIN: initializing optimizer

 OPT: Using VASP Conjugate-Gradient optimizer
 CHAIN: Read ICHAIN            0

 POSCAR: FCC Cu
  positions in cartesian coordinates
  velocities in cartesian coordinates

 ion  position               nearest neighbor table
   1  0.000  0.000  0.000-   3 2.57   4 2.57   3 2.57   4 2.57   2 2.57   2 2.57   2 2.57   2 2.57

   2  0.500  0.500  0.000-   3 2.57   4 2.57   3 2.57   4 2.57   1 2.57   1 2.57   1 2.57   1 2.57

   3  0.000  0.500  0.066-   5 2.57   6 2.57   5 2.57   6 2.57   2 2.57   1 2.57   2 2.57   1 2.57
                             4 2.57   4 2.57   4 2.57   4 2.57
   4  0.500  0.000  0.066-   5 2.57   6 2.57   5 2.57   6 2.57   2 2.57   1 2.57   2 2.57   1 2.57
                             3 2.57   3 2.57   3 2.57   3 2.57
   5  0.000  0.000  0.131-   3 2.57   4 2.57   3 2.57   4 2.57   7 2.57   8 2.57   7 2.57   8 2.57
                             6 2.57   6 2.57   6 2.57   6 2.57
   6  0.500  0.500  0.131-   3 2.57   4 2.57   3 2.57   4 2.57   7 2.57   8 2.57   7 2.57   8 2.57
                             5 2.57   5 2.57   5 2.57   5 2.57
   7  0.000  0.500  0.197-   9 2.57  10 2.57   9 2.57  10 2.57   6 2.57   5 2.57   6 2.57   5 2.57
                             8 2.57   8 2.57   8 2.57   8 2.57
   8  0.500  0.000  0.197-   9 2.57  10 2.57   9 2.57  10 2.57   6 2.57   5 2.57   6 2.57   5 2.57
                             7 2.57   7 2.57   7 2.57   7 2.57
   9  0.000  0.000  0.262-  11 2.57  12 2.57   7 2.57   8 2.57  11 2.57  12 2.57   8 2.57   7 2.57
                            10 2.57  10 2.57  10 2.57  10 2.57
  10  0.500  0.500  0.262-  11 2.57  12 2.57   7 2.57   8 2.57  11 2.57  12 2.57   8 2.57   7 2.57
                             9 2.57   9 2.57   9 2.57   9 2.57
  11  0.000  0.500  0.328-  13 2.57  14 2.57  13 2.57  14 2.57  10 2.57   9 2.57  10 2.57   9 2.57
                            12 2.57  12 2.57  12 2.57  12 2.57
  12  0.500  0.000  0.328-  13 2.57  14 2.57  13 2.57  14 2.57  10 2.57   9 2.57  10 2.57   9 2.57
                            11 2.57  11 2.57  11 2.57  11 2.57
  13  0.000  0.000  0.393-  11 2.57  12 2.57  11 2.57  12 2.57  15 2.57  16 2.57  15 2.57  16 2.57
                            14 2.57  14 2.57  14 2.57  14 2.57
  14  0.500  0.500  0.393-  11 2.57  12 2.57  11 2.57  12 2.57  15 2.57  16 2.57  15 2.57  16 2.57
                            13 2.57  13 2.57  13 2.57  13 2.57
  15  0.000  0.500  0.459-  13 2.57  14 2.57  13 2.57  14 2.57  16 2.57  16 2.57  16 2.57  16 2.57

  16  0.500  0.000  0.459-  13 2.57  14 2.57  13 2.57  14 2.57  15 2.57  15 2.57  15 2.57  15 2.57

  LATTYP: Found a simple tetragonal cell.
 ALAT       =     3.6300001144
 C/A-ratio  =     7.6322311434

  Lattice vectors:

 A1 = (   3.6300001144,   0.0000000000,   0.0000000000)
 A2 = (   0.0000000000,   3.6300001144,   0.0000000000)
 A3 = (   0.0000000000,   0.0000000000,  27.7049999237)

Analysis of symmetry for initial positions (statically):
 Subroutine PRICEL returns following result:

[...]

   2 primitive cells build up your supercell.

 Routine SETGRP: Setting up the symmetry group for a
 simple tetragonal supercell.

 Subroutine GETGRP returns: Found 16 space group operations
 (whereof  8 operations were pure point group operations)
 out of a pool of 16 trial point group operations.

The static configuration has the point symmetry C_4v.
 The point group associated with its full space group is D_4h.

Analysis of symmetry for dynamics (positions and initial velocities):
 Subroutine PRICEL returns following result:

[...]

The dynamic configuration has the point symmetry C_4v.
 The point group associated with its full space group is D_4h.

Analysis of constrained symmetry for selective dynamics:
 Subroutine PRICEL returns following result:

[...]

The constrained configuration has the point symmetry C_4v.

Analysis of structural, dynamic, and magnetic symmetry:
 Subroutine PRICEL returns following result:

  LATTYP: Found a simple tetragonal cell.
 ALAT       =     2.5667976966
 C/A-ratio  =    10.7936047942

  Lattice vectors:

 A1 = (   1.8150000570,  -1.8150000574,   0.0000000000)
 A2 = (   1.8150000570,   1.8150000570,   0.0000000000)
 A3 = (   0.0000000000,   0.0000000000,  27.7049999237)

   2 primitive cells build up your supercell.

 Routine SETGRP: Setting up the symmetry group for a
 simple tetragonal supercell.

 Subroutine GETGRP returns: Found  8 space group operations
 (whereof  8 operations were pure point group operations)
 out of a pool of 16 trial point group operations.

The overall configuration has the point symmetry C_4v.

 Subroutine INISYM returns: Found  8 space group operations
 (whereof  8 operations are pure point group operations),
 and found     2 'primitive' translations

                                     Primitive cell

  volume of cell :     182.5330

  direct lattice vectors                    reciprocal lattice vectors
     1.815000057 -1.815000057  0.000000000     0.275482085 -0.275482085  0.000000000
     1.815000057  1.815000057  0.000000000     0.275482085  0.275482085  0.000000000
     0.000000000  0.000000000 27.704999924     0.000000000  0.000000000  0.036094568

  length of vectors
     2.566797697  2.566797696 27.704999924     0.389590501  0.389590501  0.036094568

  position of ions in fractional coordinates (direct lattice)
     0.000000000  0.000000000  0.000000000
     0.500000000  0.500000000  0.065511642
     0.000000000  0.000000000  0.131023283
     0.500000000  0.500000000  0.196534925
     0.000000000  0.000000000  0.262046566
     0.500000000  0.500000000  0.327558208
     0.000000000  0.000000000  0.393069849
     0.500000000  0.500000000  0.458581491

  ion indices of the primitive-cell ions
   primitive index   ion index
                 1           1
                 2           3
                 3           5
                 4           7
                 5           9
                 6          11
                 7          13
                 8          15

 KPOINTS: Auto-mesh

Automatic generation of k-mesh.
 Grid dimensions read from file:
 generate k-points for:    3    3    1

 Generating k-lattice:

  Cartesian coordinates                     Fractional coordinates (reciprocal lattice)
     0.091827362  0.000000000  0.000000000     0.333333333  0.000000000  0.000000000
     0.000000000  0.091827362  0.000000000     0.000000000  0.333333333  0.000000000
     0.000000000  0.000000000  0.036094568     0.000000000  0.000000000  1.000000000

  Length of vectors
     0.091827362  0.091827362  0.036094568

  Shift w.r.t. Gamma in fractional coordinates (k-lattice)
     0.000000000  0.000000000  0.000000000

 Subroutine IBZKPT returns following result:

 Found      3 irreducible k-points:

 Following reciprocal coordinates:
            Coordinates               Weight
  0.000000  0.000000  0.000000      1.000000
  0.333333  0.000000  0.000000      4.000000
  0.333333  0.333333  0.000000      4.000000

 Following cartesian coordinates:
            Coordinates               Weight
  0.000000  0.000000  0.000000      1.000000
  0.091827  0.000000  0.000000      4.000000
  0.091827  0.091827  0.000000      4.000000

 SYSTEM =  unknown system
 POSCAR =  FCC Cu

 Startparameter for this run:
   NWRITE =      2    write-flag & timer
   PREC   = normal    normal or accurate (medium, high low for compatibility)
   ISTART =      0    job   : 0-new  1-cont  2-samecut
   ICHARG =      2    charge: 1-file 2-atom 10-const
   ISPIN  =      2    spin polarized calculation?
   LNONCOLLINEAR =      F non collinear calculations
   LSORBIT =      F    spin-orbit coupling
   INIWAV =      1    electr: 0-lowe 1-rand  2-diag
   LASPH  =      F    aspherical Exc in radial PAW
 Electronic Relaxation 1
   ENCUT  =  400.0 eV  29.40 Ry    5.42 a.u.   5.92  5.92 45.18*2*pi/ulx,y,z
   ENINI  =  400.0     initial cutoff
   ENAUG  =  587.0 eV  augmentation charge cutoff
   NELM   =     60;   NELMIN=  2; NELMDL= -5     # of ELM steps
   EDIFF  = 0.2E-03   stopping-criterion for ELM
   LREAL  =      F    real-space projection
   NLSPLINE    = F    spline interpolate recip. space projectors
   LCOMPAT=      F    compatible to vasp.4.4
   GGA_COMPAT  = T    GGA compatible to vasp.4.4-vasp.4.6
   LMAXPAW     = -100 max onsite density
   LMAXMIX     =    2 max onsite mixed and CHGCAR
   VOSKOWN=      0    Vosko Wilk Nusair interpolation
   ROPT   =    0.00000
 Ionic relaxation
   EDIFFG = -.3E-01   stopping-criterion for IOM
   NSW    =    800    number of steps for IOM
   NBLOCK =      1;   KBLOCK =    800    inner block; outer block
   IBRION =      2    ionic relax: 0-MD 1-quasi-New 2-CG
   NFREE  =      1    steps in history (QN), initial steepest desc. (CG)
   ISIF   =      2    stress and relaxation
   IWAVPR =     11    prediction:  0-non 1-charg 2-wave 3-comb
   ISYM   =      1    0-nonsym 1-usesym 2-fastsym
   LCORR  =      T    Harris-Foulkes like correction to forces

   POTIM  = 0.5000    time-step for ionic-motion
   TEIN   =    0.0    initial temperature
   TEBEG  =    0.0;   TEEND  =   0.0 temperature during run
   SMASS  =  -3.00    Nose mass-parameter (am)
[...]
  (g-gl).g = 0.822E-02      g.g   = 0.934E-02  gl.gl    = 0.910E-02
 g(Force)  = 0.934E-02   g(Stress)= 0.000E+00 ortho     = 0.940E-03
 gamma     =   0.90354
 trial     =   1.68770
 opt step  =   4.10088  (harmonic =   4.10088) maximal distance =0.01551408
 next E    =   -63.063445   (d E  =  -0.02090)

[...]

 Broyden mixing:
  rms(total) = 0.27516E-02    rms(broyden)= 0.19636E-02
  rms(prec ) = 0.35917E-02
  weight for this iteration     100.00
  WARNING: grid for Broyden might be to small

[...]

 d Force =-0.2374342E-04[-0.513E-04, 0.382E-05]  d Energy =-0.4030749E-04 0.166E-04
 d Force =-0.2164584E+01[-0.216E+01,-0.216E+01]  d Ewald  =-0.2164584E+01 0.771E-09

[...]

 Broyden mixing:
  rms(total) = 0.92205E-03    rms(broyden)= 0.81036E-03
  rms(prec ) = 0.10941E-02
  weight for this iteration     100.00
  WARNING: grid for Broyden might be to small

[...]

 d Force =-0.1217617E-05[-0.105E-04, 0.807E-05]  d Energy = 0.2339580E-04-0.246E-04
 d Force =-0.1007275E+01[-0.101E+01,-0.101E+01]  d Ewald  =-0.1007275E+01-0.335E-09

[...]

 d Force = 0.2081626E-05[-0.178E-05, 0.594E-05]  d Energy =-0.1931875E-04 0.214E-04
 d Force = 0.5696565E+00[ 0.570E+00, 0.570E+00]  d Ewald  = 0.5696565E+00 0.291E-10

[...]

 d Force = 0.1452211E-06[-0.381E-06, 0.671E-06]  d Energy = 0.1985402E-05-0.184E-05
 d Force =-0.2150217E+00[-0.215E+00,-0.215E+00]  d Ewald  =-0.2150217E+00 0.335E-09

[...]

 d Force = 0.6664381E-07[-0.461E-08, 0.138E-06]  d Energy = 0.1348943E-03-0.135E-03
 d Force = 0.7783729E-01[ 0.778E-01, 0.778E-01]  d Ewald  = 0.7783729E-01-0.320E-09

 stress matrix after NEB project (eV)
     -5.28584      0.00000      0.00000
      0.00000     -5.28584      0.00000
      0.00000      0.00000     -2.56762
  FORCES: max atom, RMS     0.046189    0.025043
  FORCE total and by dimension    0.100174    0.046189
  Stress total and by dimension    7.903977    5.285839

[...]

 eigenvalue-minimisations  :  2288
 total energy-change (2. order) :-0.2577069E-02  (-0.2008518E-02)
 number of electron     176.0002542 magnetization      -0.0000006
 augmentation part      112.1995247 magnetization       0.0000019

[...]

 Broyden mixing:
  rms(total) = 0.10252E-01    rms(broyden)= 0.10193E-01
  rms(prec ) = 0.12522E-01
  weight for this iteration     100.00

 eigenvalues of (default mixing * dielectric matrix)
  average eigenvalue GAMMA=   0.2162
  0.3581  0.0742

[...]

--------------------------------------- Iteration     30(   4)  ---------------------------------------

 eigenvalue-minimisations  :  1184
 total energy-change (2. order) : 0.5725999E-04  (-0.1002391E-03)
 number of electron     176.0002542 magnetization      -0.0000008
 augmentation part      112.2025246 magnetization      -0.0000049

 Free energy of the ion-electron system (eV)
  alpha Z        PSCENC =       512.83866137
  Ewald energy   TEWEN  =    103777.24191852
  -Hartree energ DENC   =   -125377.46320880
  -exchange      EXHF   =         0.00000000
  -V(xc)+E(xc)   XCENC  =       713.83231681
  PAW double counting   =     21034.87149992   -22760.68265720
  entropy T*S    EENTRO =        -0.00877447
  eigenvalues    EBANDS =      -212.34680588
  atomic energy  EATOM  =     22255.32224320
  Solvation  Ediel_sol  =         0.00000000
  free energy    TOTEN  =       -56.39480652 eV

  energy without entropy =      -56.38603206  energy(sigma->0) =      -56.39188170

 average (electrostatic) potential at core
  the test charge radii are     0.9430
  (the norm of the test charge is              1.0000)
       1 -69.2441       2 -69.2441       3 -69.6097       4 -69.6097       5 -69.5341
       6 -69.5341       7 -69.4988       8 -69.4988       9 -69.4928      10 -69.4928
      11 -69.5158      12 -69.5158      13 -69.6343      14 -69.6343      15 -69.2867
      16 -69.2867

 E-fermi :   1.8204     XC(G=0):  -7.2355     alpha+bet : -6.9486

 Fermi energy:         1.8204052896

[...]

 k-point     3 :       0.3333    0.3333    0.0000
  band No.  band energies     occupation
      1      -5.1027      1.00000
      2      -4.7050      1.00000
      3      -4.1542      1.00000
      4      -3.5691      1.00000
      5      -3.0797      1.00000
      6      -2.9950      1.00000
      7      -2.9913      1.00000
      8      -2.9413      1.00000
      9      -2.9373      1.00000
     10      -2.8859      1.00000
     11      -2.8473      1.00000
     12      -2.6884      1.00000
     13      -2.4994      1.00000
     14      -2.4167      1.00000
     15      -2.4153      1.00000
     16      -2.3192      1.00000
     17      -2.1437      1.00000
     18      -1.9763      1.00000
     19      -1.9675      1.00000
     20      -1.9318      1.00000
     21      -1.8233      1.00000
     22      -1.7908      1.00000
     23      -1.6932      1.00000
     24      -1.6915      1.00000
     25      -1.6485      1.00000
     26      -1.6302      1.00000
     27      -1.5138      1.00000
     28      -1.5098      1.00000
     29      -1.4695      1.00000
     30      -1.4638      1.00000
     31      -1.4244      1.00000
     32      -1.3556      1.00000
     33      -1.3524      1.00000
     34      -1.3240      1.00000
     35      -1.2785      1.00000
     36      -1.2633      1.00000
     37      -1.2566      1.00000
     38      -1.2420      1.00000
     39      -1.2124      1.00000
     40      -1.1452      1.00000
     41      -1.1359      1.00000
     42      -1.1331      1.00000
     43      -1.1319      1.00000
     44      -1.1272      1.00000
     45      -1.1264      1.00000
     46      -1.0757      1.00000
     47      -1.0629      1.00000
     48      -1.0424      1.00000
     49      -0.9440      1.00000
     50      -0.9430      1.00000
     51      -0.9322      1.00000
     52      -0.8961      1.00000
     53      -0.8909      1.00000
     54      -0.8832      1.00000
     55      -0.7802      1.00000
     56      -0.7662      1.00000
     57      -0.7197      1.00000
     58      -0.6657      1.00000
     59      -0.6418      1.00000
     60      -0.6109      1.00000
[...]
    102       6.7584     -0.00000
    103       6.8553     -0.00000
    104       7.2212     -0.00000
    105       7.7944      0.00000
    106       8.2187      0.00000
    107       8.2633      0.00000
    108       8.7460      0.00000
    109       8.8233      0.00000
    110       8.9881      0.00000
    111       9.9149      0.00000
    112       9.9272      0.00000
    113       9.9973      0.00000
    114      10.4687      0.00000
    115      10.8743      0.00000
    116      11.2848      0.00000
 Fermi energy:         1.8204052896

 spin component 2

[...]

 k-point     3 :       0.3333    0.3333    0.0000
  band No.  band energies     occupation
      1      -5.1027      1.00000
      2      -4.7050      1.00000
      3      -4.1542      1.00000
      4      -3.5691      1.00000
      5      -3.0797      1.00000
      6      -2.9950      1.00000
      7      -2.9913      1.00000
      8      -2.9413      1.00000
      9      -2.9373      1.00000
     10      -2.8859      1.00000
     11      -2.8473      1.00000
     12      -2.6884      1.00000
     13      -2.4994      1.00000
     14      -2.4167      1.00000
     15      -2.4153      1.00000
     16      -2.3192      1.00000
     17      -2.1437      1.00000
     18      -1.9763      1.00000
     19      -1.9675      1.00000
     20      -1.9318      1.00000
     21      -1.8233      1.00000
     22      -1.7908      1.00000
     23      -1.6932      1.00000
     24      -1.6915      1.00000
     25      -1.6485      1.00000
     26      -1.6302      1.00000
     27      -1.5138      1.00000
     28      -1.5098      1.00000
     29      -1.4695      1.00000
     30      -1.4638      1.00000
     31      -1.4244      1.00000
     32      -1.3556      1.00000
     33      -1.3524      1.00000
     34      -1.3240      1.00000
     35      -1.2786      1.00000
     36      -1.2633      1.00000
     37      -1.2566      1.00000
     38      -1.2420      1.00000
     39      -1.2124      1.00000
     40      -1.1452      1.00000
     41      -1.1359      1.00000
     42      -1.1331      1.00000
     43      -1.1319      1.00000
     44      -1.1272      1.00000
     45      -1.1264      1.00000
     46      -1.0757      1.00000
     47      -1.0629      1.00000
     48      -1.0424      1.00000
     49      -0.9440      1.00000
     50      -0.9430      1.00000
     51      -0.9322      1.00000
     52      -0.8961      1.00000
     53      -0.8909      1.00000
     54      -0.8832      1.00000
     55      -0.7802      1.00000
     56      -0.7662      1.00000
     57      -0.7197      1.00000
     58      -0.6657      1.00000
     59      -0.6418      1.00000
     60      -0.6109      1.00000
[...]
    102       6.7584     -0.00000
    103       6.8553     -0.00000
    104       7.2212     -0.00000
    105       7.7944      0.00000
    106       8.2187      0.00000
    107       8.2633      0.00000
    108       8.7460      0.00000
    109       8.8232      0.00000
    110       8.9881      0.00000
    111       9.9149      0.00000
    112       9.9272      0.00000
    113       9.9973      0.00000
    114      10.4687      0.00000
    115      10.8743      0.00000
    116      11.2440      0.00000

[...]

 soft charge-density along one line, spin component           2
         0         1         2         3         4         5         6         7         8         9
 total charge-density along one line

------------------------ aborting loop because EDIFF is reached ----------------------------------------

 DIPCOR: dipole corrections for dipol
 direction  3 min pos   202,
 dipolmoment           0.000000      0.000000     -0.004329 electrons x Angstroem
 Tr[quadrupol]      -577.611334

 energy correction for charged system         0.000000 eV
 dipol+quadrupol energy correction            0.000005 eV
 added-field ion interaction          0.000000 eV  (added to PSCEN)

  *************** adding dipol energy to TOTEN NOW ****************

         DFTD3 V3.0 Rev 1
 Edisp (eV)   -6.72945

 E6    (eV) :    -2.7456
 E8    (eV) :    -3.9839
 % E8        : 59.20

  FORCE on cell =-STRESS in cart. coord.  units (eV):
  Direction    XX          YY          ZZ          XY          YZ          ZX
  Alpha Z   512.83866   512.83866   512.83866
  Ewald  115478.67740115478.67740************    -0.00000     0.00000     0.00000
  Hartree121711.93303121711.93303************    -0.00000    -0.00000    -0.00000
  E(xc)   -1028.76155 -1028.76155 -1029.75191     0.00000     0.00000     0.00000
  Local  ************************243121.99559     0.00000    -0.00000    -0.00000
  n-local  -328.22138  -348.39596  -339.04256     6.57361     0.00000    -0.00000
  augment  1513.68625  1513.68625  1518.58368    -0.00000     0.00000     0.00000
  Kinetic  1452.89795  1420.63658  1440.81979    -5.07363    -0.00000     0.00000
  Fock        0.00000     0.00000     0.00000     0.00000     0.00000     0.00000
  vdW        -8.15966    -8.15966    -6.42618     0.00000     0.00000     0.00000
  Total      -4.58791    -4.58791    -1.78555     0.00000     0.00000     0.00000
  in kB     -20.13512   -20.13512    -7.83629     0.00000     0.00000     0.00000

 VOLUME and BASIS-vectors are now :
  energy-cutoff  :      400.00
  volume of cell :      365.07
      direct lattice vectors                 reciprocal lattice vectors
     3.630000114  0.000000000  0.000000000     0.275482085  0.000000000  0.000000000
     0.000000000  3.630000114  0.000000000     0.000000000  0.275482085  0.000000000
     0.000000000  0.000000000 27.704999924     0.000000000  0.000000000  0.036094568

  length of vectors
     3.630000114  3.630000114 27.704999924     0.275482085  0.275482085  0.036094568

 FORCES acting on ions
    electron-ion (+dipol)            ewald-force                    non-local-force                 convergence-correction
   -.696E-13 0.698E-12 0.564E+04   -.923E-07 -.923E-07 -.564E+04   0.000E+00 0.000E+00 -.291E+01   -.323E-11 -.326E-11 -.274E+00
   0.774E-06 0.774E-06 0.564E+04   0.923E-07 0.923E-07 -.564E+04   -.827E-24 -.165E-23 -.291E+01   0.851E-11 0.871E-11 -.274E+00
   -.324E-13 0.753E-06 0.412E+04   -.127E-06 0.127E-06 -.411E+04   0.662E-23 0.331E-23 -.139E+01   -.802E-10 0.166E-10 -.122E+00
   0.753E-06 0.247E-11 0.412E+04   0.127E-06 -.127E-06 -.411E+04   -.662E-23 -.827E-23 -.139E+01   0.166E-10 -.797E-10 -.122E+00
   -.206E-13 -.934E-12 0.248E+04   -.132E-06 -.132E-06 -.248E+04   -.331E-23 0.000E+00 -.145E+00   -.823E-11 -.805E-11 0.314E+00
   0.751E-06 0.751E-06 0.248E+04   0.132E-06 0.132E-06 -.248E+04   -.331E-23 0.000E+00 -.145E+00   -.384E-10 -.389E-10 0.314E+00
   -.250E-13 0.749E-06 0.832E+03   -.134E-06 0.134E-06 -.832E+03   0.331E-23 -.331E-23 -.981E-01   0.401E-10 -.617E-10 0.590E+00
   0.749E-06 -.225E-13 0.832E+03   0.134E-06 -.134E-06 -.832E+03   -.827E-24 0.662E-23 -.981E-01   -.618E-10 0.399E-10 0.590E+00
   -.272E-13 -.250E-12 -.829E+03   -.133E-06 -.133E-06 0.828E+03   0.000E+00 0.000E+00 0.327E-02   -.199E-10 -.197E-10 0.929E+00
   0.750E-06 0.750E-06 -.829E+03   0.133E-06 0.133E-06 0.828E+03   0.000E+00 0.910E-23 0.327E-02   -.548E-10 -.546E-10 0.929E+00
   -.413E-13 0.752E-06 -.247E+04   -.131E-06 0.131E-06 0.247E+04   0.662E-23 0.000E+00 0.935E-02   0.831E-10 -.240E-10 0.857E+00
   0.752E-06 -.111E-12 -.247E+04   0.131E-06 -.131E-06 0.247E+04   -.662E-23 0.000E+00 0.935E-02   -.240E-10 0.830E-10 0.857E+00
   -.275E-13 -.676E-12 -.410E+04   -.130E-06 -.130E-06 0.410E+04   -.182E-22 0.000E+00 0.120E+01   0.267E-09 0.267E-09 0.329E+00
   0.751E-06 0.751E-06 -.410E+04   0.130E-06 0.130E-06 0.410E+04   -.331E-23 0.000E+00 0.120E+01   -.120E-09 -.119E-09 0.329E+00
   -.330E-13 0.772E-06 -.567E+04   -.963E-07 0.963E-07 0.567E+04   0.331E-23 0.000E+00 0.335E+01   -.336E-10 -.174E-12 -.466E+00
   0.772E-06 0.220E-11 -.567E+04   0.963E-07 -.963E-07 0.567E+04   -.993E-23 -.132E-22 0.335E+01   -.395E-12 -.338E-10 -.466E+00
   0.605E-05 0.605E-05 -.439E+01   0.962E-13 0.363E-13 0.182E-11   -.331E-22 -.744E-23 0.524E-01   -.289E-10 -.281E-10 0.431E+01

 POSITION                                       TOTAL-FORCE (eV/Angst)
      0.00000      0.00000      0.00000         0.000000     -0.000000      0.253126
      1.81500      1.81500      0.00000        -0.000000     -0.000000      0.253126
      0.00000      1.81500      1.81500        -0.000000     -0.000000     -0.265407
      1.81500      0.00000      1.81500        -0.000000      0.000000     -0.265407
      0.00000      0.00000      3.56733         0.000000      0.000000      0.010847
      1.81500      1.81500      3.56733         0.000000     -0.000000      0.010847
      0.00000      1.81500      5.31747         0.000000      0.000000      0.008245
      1.81500     -0.00000      5.31747         0.000000      0.000000      0.008245
      0.00000     -0.00000      7.03888        -0.000000     -0.000000      0.011192
      1.81500      1.81500      7.03888         0.000000      0.000000      0.011192
     -0.00000      1.81500      8.79574         0.000000      0.000000      0.001353
      1.81500     -0.00000      8.79574        -0.000000      0.000000      0.001353
     -0.00000      0.00000     10.56453         0.000000      0.000000     -0.017496
      1.81500      1.81500     10.56453         0.000000      0.000000     -0.017496
     -0.00000      1.81500     12.31212         0.000000      0.000000     -0.001860
      1.81500      0.00000     12.31212         0.000000     -0.000000     -0.001860
    total drift:                                0.000006      0.000006     -0.022686

  FREE ENERGIE OF THE ION-ELECTRON SYSTEM (eV)
  free  energy   TOTEN  =       -63.12424886 eV

  energy  without entropy=      -63.11547439  energy(sigma->0) =      -63.12132404

 d Force = 0.5834176E-03[ 0.160E-03, 0.101E-02]  d Energy = 0.6355103E-03-0.521E-04
 d Force =-0.1015394E+03[-0.102E+03,-0.101E+03]  d Ewald  =-0.1015395E+03 0.151E-04

 stress matrix after NEB project (eV)
     -4.58791      0.00000      0.00000
      0.00000     -4.58791      0.00000
      0.00000      0.00000     -1.78555
  FORCES: max atom, RMS     0.017496    0.008820
  FORCE total and by dimension    0.035278    0.017496
  Stress total and by dimension    6.729491    4.587912
 Conjugate gradient step on ions:
 trial-energy change:   -0.000636  1 .order   -0.000583   -0.001007   -0.000160
  (g-gl).g = 0.437E-03      g.g   = 0.484E-03  gl.gl    = 0.164E-02
 g(Force)  = 0.484E-03   g(Stress)= 0.000E+00 ortho     = 0.373E-05
 gamma     =   0.26615
 trial     =   2.07592
 opt step  =   2.46750  (harmonic =   2.46750) maximal distance =0.00310206
 next E    =   -63.124212   (d E  =  -0.00060)

 reached required accuracy - stopping structural energy minimisation