 vasp.6.3.2 27Jun22 (build Aug 17 2022 15:43:34) complex

 executed on           tv2STDVTST date 2025.02.04  14:22:02

 INCAR:
   ISTART = 0
   ICHARG = 2
   IPIPOL = 3
   IVDW = 11
   ISPIN = 2
   ENCUT = 400
   PREC = Normal
   EDIFF = 2E-04
   GGA = PE
   ISMEAR = 1
   SIGMA = 0.2
   LREAL = .FALSE.
   ISYM = 1
   NSW = 800
   IBRION = 2
   POTIM = 0.5
   ISIF = 2
   EDIFFG = -.03
   NPAR = 4
   LWAVE = .FALSE.
   LCHARG = .FALSE.

 POTCAR:    PAW_PBE Cu 22Jun2005
 POTCAR:    PAW_PBE H 15Jun2001
|           W    W    AA    RRRRR   N    N  II  N    N   GGGG   !!!           |
|           W    W   A  A   R    R  NN   N  II  NN   N  G    G  !!!           |
|           W    W  A    A  R    R  N N  N  II  N N  N  G       !!!           |
|           W WW W  AAAAAA  RRRRR   N  N N  II  N  N N  G  GGG   !            |
|           WW  WW  A    A  R   R   N   NN  II  N   NN  G    G                |
|           W    W  A    A  R    R  N    N  II  N    N   GGGG   !!!           |
|     You use a magnetic or noncollinear calculation, but did not specify     |
|     the initial magnetic moment with the MAGMOM tag. Note that a            |
|     default of 1 will be used for all atoms. This ferromagnetic setup       |
|     may break the symmetry of the crystal, in particular it may rule        |
|     out finding an antiferromagnetic solution. Thence, we recommend         |
|     setting the initial magnetic moment manually or verifying carefully     |
|     that this magnetic setup is desired.                                    |

   TITEL  = PAW_PBE Cu 22Jun2005
   POMASS =   63.546; ZVAL   =   11.000    mass and valenz
   ENMAX  =  295.446; ENMIN  =  221.585 eV

   TITEL  = PAW_PBE H 15Jun2001
   POMASS =    1.000; ZVAL   =    1.000    mass and valenz
   ENMAX  =  250.000; ENMIN  =  200.000 eV

  PAW_PBE Cu 22Jun2005                  :
  PAW_PBE H 15Jun2001                   :

 POSCAR: FCC Cu
  positions in cartesian coordinates
 exchange correlation table for  LEXCH =        8
   RHO(1)=    0.500       N(1)  =     2000
   RHO(2)=  100.500       N(2)  =     4000

 VTST: version 4.2, (08/11/21)

 CHAIN: initializing optimizer

 OPT: Using VASP Conjugate-Gradient optimizer
 CHAIN: Read ICHAIN            0

 POSCAR: FCC Cu
  positions in cartesian coordinates

 ion  position               nearest neighbor table
   1  0.000  0.000  0.000-   2 2.57   2 2.57   2 2.57
   2  0.333  0.333  0.071-   3 2.51   3 2.51   3 2.51   1 2.57   1 2.57   1 2.57
   3  0.667  0.667  0.139-   2 2.51   2 2.51   2 2.51   4 2.53   4 2.53   4 2.53
   4  0.000  0.000  0.208-   5 2.51   5 2.51   5 2.51   3 2.53   3 2.53   3 2.53
   5  0.333  0.333  0.277-   4 2.51   4 2.51   4 2.51   6 2.53   6 2.53   6 2.53
   6  0.667  0.667  0.346-   7 2.51   7 2.51   7 2.51   5 2.53   5 2.53   5 2.53
   7  0.000  0.000  0.414-   8 2.49   8 2.49   8 2.49   6 2.51   6 2.51   6 2.51
   8  0.333  0.333  0.481-   7 2.49   7 2.49   7 2.49
   9  0.667  0.667  0.534-  10 0.75
  10  0.667  0.667  0.559-   9 0.75

  LATTYP: Found a hexagonal cell.
 ALAT       =     2.5667977333
 C/A-ratio  =    11.5593335643

  Lattice vectors:

 A1 = (  -1.2833988667,  -2.2229120434,   0.0000000000)
 A2 = (   2.5667977333,   0.0000000000,   0.0000000000)
 A3 = (   0.0000000000,   0.0000000000,  29.6704711914)

Analysis of symmetry for initial positions (statically):
 Subroutine PRICEL returns:
 Original cell was already a primitive cell.

 Routine SETGRP: Setting up the symmetry group for a
 hexagonal supercell.

 Subroutine GETGRP returns: Found  6 space group operations
 (whereof  6 operations were pure point group operations)
 out of a pool of 24 trial point group operations.

The static configuration has the point symmetry C_3v.

Analysis of symmetry for dynamics (positions and initial velocities):
 Subroutine PRICEL returns:
 Original cell was already a primitive cell.

[...]

The dynamic configuration has the point symmetry C_3v.

Analysis of structural, dynamic, and magnetic symmetry:
 Subroutine PRICEL returns:
 Original cell was already a primitive cell.

 Routine SETGRP: Setting up the symmetry group for a
 hexagonal supercell.

 Subroutine GETGRP returns: Found  6 space group operations
 (whereof  6 operations were pure point group operations)
 out of a pool of 24 trial point group operations.

The overall configuration has the point symmetry C_3v.

 Subroutine INISYM returns: Found  6 space group operations
 (whereof  6 operations are pure point group operations),
 and found     1 'primitive' translations

                                     Primitive cell

  volume of cell :     169.2928

  direct lattice vectors                    reciprocal lattice vectors
     2.566797733  0.000000000  0.000000000     0.389590495 -0.224930177  0.000000000
     1.283398867  2.222912043  0.000000000     0.000000000  0.449860355  0.000000000
     0.000000000  0.000000000 29.670471191     0.000000000  0.000000000  0.033703543

  length of vectors
     2.566797733  2.566797733 29.670471191     0.449860355  0.449860355  0.033703543

  position of ions in fractional coordinates (direct lattice)
     0.000000000  0.000000000  0.000000000
     0.333333333  0.333333333  0.070635264
     0.666666667  0.666666667  0.139085938
     0.000000000  0.000000000  0.208165116
     0.333333333  0.333333333  0.276562395
     0.666666667  0.666666667  0.345560339
     0.000000000  0.000000000  0.414005934
     0.333333333  0.333333333  0.481392695
     0.666666667  0.666666666  0.534259303
     0.666666667  0.666666666  0.559402146

  ion indices of the primitive-cell ions
   primitive index   ion index
                 1           1
                 2           2
                 3           3
                 4           4
                 5           5
                 6           6
                 7           7
                 8           8
                 9           9
                10          10

 KPOINTS: Auto-mesh

Automatic generation of k-mesh.
 Grid dimensions read from file:
 generate k-points for:    3    3    1

 Generating k-lattice:

  Cartesian coordinates                     Fractional coordinates (reciprocal lattice)
     0.129863498 -0.074976726  0.000000000     0.333333333  0.000000000  0.000000000
     0.000000000  0.149953452  0.000000000     0.000000000  0.333333333  0.000000000
     0.000000000  0.000000000  0.033703543     0.000000000  0.000000000  1.000000000

  Length of vectors
     0.149953452  0.149953452  0.033703543

  Shift w.r.t. Gamma in fractional coordinates (k-lattice)
     0.000000000  0.000000000  0.000000000

 Subroutine IBZKPT returns following result:

 Found      3 irreducible k-points:

 Following reciprocal coordinates:
            Coordinates               Weight
  0.000000  0.000000  0.000000      1.000000
  0.333333  0.000000  0.000000      6.000000
 -0.333333  0.333333  0.000000      2.000000

 Following cartesian coordinates:
            Coordinates               Weight
  0.000000  0.000000  0.000000      1.000000
  0.129863 -0.074977  0.000000      6.000000
 -0.129863  0.224930  0.000000      2.000000

 SYSTEM =  unknown system
 POSCAR =  FCC Cu

 Startparameter for this run:
   NWRITE =      2    write-flag & timer
   PREC   = normal    normal or accurate (medium, high low for compatibility)
   ISTART =      0    job   : 0-new  1-cont  2-samecut
   ICHARG =      2    charge: 1-file 2-atom 10-const
   ISPIN  =      2    spin polarized calculation?
   LNONCOLLINEAR =      F non collinear calculations
   LSORBIT =      F    spin-orbit coupling
   INIWAV =      1    electr: 0-lowe 1-rand  2-diag
   LASPH  =      F    aspherical Exc in radial PAW
 Electronic Relaxation 1
   ENCUT  =  400.0 eV  29.40 Ry    5.42 a.u.   4.19  4.19 48.39*2*pi/ulx,y,z
   ENINI  =  400.0     initial cutoff
   ENAUG  =  587.0 eV  augmentation charge cutoff
   NELM   =     60;   NELMIN=  2; NELMDL= -5     # of ELM steps
   EDIFF  = 0.2E-03   stopping-criterion for ELM
   LREAL  =      F    real-space projection
   NLSPLINE    = F    spline interpolate recip. space projectors
   LCOMPAT=      F    compatible to vasp.4.4
   GGA_COMPAT  = T    GGA compatible to vasp.4.4-vasp.4.6
   LMAXPAW     = -100 max onsite density
   LMAXMIX     =    2 max onsite mixed and CHGCAR
   VOSKOWN=      0    Vosko Wilk Nusair interpolation
   ROPT   =    0.00000   0.00000
 Ionic relaxation
   EDIFFG = -.3E-01   stopping-criterion for IOM
   NSW    =    800    number of steps for IOM
   NBLOCK =      1;   KBLOCK =    800    inner block; outer block
   IBRION =      2    ionic relax: 0-MD 1-quasi-New 2-CG
   NFREE  =      1    steps in history (QN), initial steepest desc. (CG)
   ISIF   =      2    stress and relaxation
   IWAVPR =     11    prediction:  0-non 1-charg 2-wave 3-comb
   ISYM   =      1    0-nonsym 1-usesym 2-fastsym
   LCORR  =      T    Harris-Foulkes like correction to forces

   POTIM  = 0.5000    time-step for ionic-motion
   TEIN   =    0.0    initial temperature
   TEBEG  =    0.0;   TEEND  =   0.0 temperature during run
   SMASS  =  -3.00    Nose mass-parameter (am)
   estimated Nose-frequenzy (Omega)   =  0.10E-29 period in steps = 0.13E+47 mass=  -0.151E-27a.u.
   SCALEE = 1.0000    scale energy and forces
   NPACO  =    256;   APACO  = 10.0  distance and # of slots for P.C.
   PSTRESS=    0.0 pullay stress

  Mass of Ions in am
   POMASS =  63.55  1.00
  Ionic Valenz
   ZVAL   =  11.00  1.00
  Atomic Wigner-Seitz radii
  virtual crystal weights
   VCA    =   1.00  1.00
   NELECT =      90.0000    total number of electrons
   NUPDOWN=      -1.0000    fix difference up-down

 DOS related values:
   EMIN   =  10.00;   EMAX   =-10.00  energy-range for DOS
   EFERMI =   0.00
   ISMEAR =     1;   SIGMA  =   0.20  broadening in eV -4-tet -1-fermi 0-gaus

 Electronic relaxation 2 (details)
   IALGO  =     38    algorithm
   LDIAG  =      T    sub-space diagonalisation (order eigenvalues)
   LSUBROT=      F    optimize rotation matrix (better conditioning)
   TURBO    =      0    0=normal 1=particle mesh
   IRESTART =      0    0=no restart 2=restart with 2 vectors
   NREBOOT  =      0    no. of reboots
   NMIN     =      0    reboot dimension
   EREF     =   0.00    reference energy to select bands
   IMIX   =      4    mixing-type and parameters
     AMIX     =   0.40;   BMIX     =  1.00
     AMIX_MAG =   1.60;   BMIX_MAG =  1.00
     AMIN     =   0.10
     WC   =   100.;   INIMIX=   1;  MIXPRE=   1;  MAXMIX= -45

 Intra band minimization:
   WEIMIN = 0.0010     energy-eigenvalue tresh-hold
   EBREAK =  0.83E-06  absolut break condition
   DEPER  =   0.30     relativ break condition

   TIME   =   0.40     timestep for ELM

  volume/ion in A,a.u.               =      16.93       114.24
  Fermi-wavevector in a.u.,A,eV,Ry     =   1.326202  2.506158 23.930072  1.758811
  Thomas-Fermi vector in A             =   2.455606

 Write flags
   LWAVE        =      F    write WAVECAR
   LDOWNSAMPLE  =      F    k-point downsampling of WAVECAR
   LCHARG       =      F    write CHGCAR
   LVTOT        =      F    write LOCPOT, total local potential
   LVHAR        =      F    write LOCPOT, Hartree potential only
[...]
 d Force =-0.2201934E+03[-0.221E+03,-0.220E+03]  d Ewald  =-0.2201937E+03 0.331E-03

 stress matrix after NEB project (eV)
     -4.76152     -0.00000     -0.00000
     -0.00000     -4.76152      0.00000
     -0.00000      0.00000     -0.78374
  FORCES: max atom, RMS     0.531911    0.214281
  FORCE total and by dimension    0.677617    0.531911
  Stress total and by dimension    6.779255    4.761515
 Conjugate gradient step on ions:
 trial-energy change:   -0.028290  1 .order   -0.028528   -0.033937   -0.023119
  (g-gl).g = 0.386E-01      g.g   = 0.373E-01  gl.gl    = 0.136E+00
 g(Force)  = 0.373E-01   g(Stress)= 0.000E+00 ortho     =-0.128E-02
 gamma     =   0.28368
 trial     =   0.91774
 opt step  =   2.87906  (harmonic =   2.87906) maximal distance =0.06957792
 next E    =   -40.777910   (d E  =  -0.05323)

[...]

 stress matrix after NEB project (eV)
     -3.91213     -0.00000     -0.00000
     -0.00000     -3.91213     -0.00000
      0.00000     -0.00000      1.49345
  FORCES: max atom, RMS     0.188150    0.093961
  FORCE total and by dimension    0.297130    0.188150
  Stress total and by dimension    5.730611    3.912129
 Conjugate gradient step on ions:
 trial-energy change:   -0.003247  1 .order   -0.003265   -0.003891   -0.002639
  (g-gl).g = 0.407E-02      g.g   = 0.945E-02  gl.gl    = 0.245E-01
 g(Force)  = 0.945E-02   g(Stress)= 0.000E+00 ortho     = 0.169E-02
 gamma     =   0.16599
 trial     =   0.40007
 opt step  =   1.24292  (harmonic =   1.24292) maximal distance =0.01324675
 next E    =   -40.858243   (d E  =  -0.00604)

[...]

 d Force = 0.2979045E-02[ 0.399E-03, 0.556E-02]  d Energy = 0.3161110E-02-0.182E-03
 d Force =-0.6299445E+01[-0.643E+01,-0.617E+01]  d Ewald  =-0.6299464E+01 0.183E-04

[...]

 d Force = 0.6042032E-05[-0.188E-04, 0.308E-04]  d Energy =-0.5474826E-04 0.608E-04
 d Force =-0.4979376E+00[-0.499E+00,-0.497E+00]  d Ewald  =-0.4979376E+00 0.964E-08

[...]

 d Force = 0.1370330E-02[-0.489E-03, 0.323E-02]  d Energy = 0.1639924E-02-0.270E-03
 d Force = 0.9918258E+02[ 0.990E+02, 0.994E+02]  d Ewald  = 0.9918257E+02 0.947E-05

[...]

 d Force =-0.6383556E-03[-0.243E-02, 0.115E-02]  d Energy =-0.7632501E-03 0.125E-03
 d Force = 0.1362506E+03[ 0.136E+03, 0.136E+03]  d Ewald  = 0.1362505E+03 0.121E-04

[...]

 d Force =-0.5709469E-04[-0.292E-02, 0.281E-02]  d Energy = 0.6932446E-03-0.750E-03
 d Force = 0.3945341E+03[ 0.394E+03, 0.396E+03]  d Ewald  = 0.3945343E+03-0.162E-03

[...]

 d Force = 0.2055144E-03[-0.108E-02, 0.149E-02]  d Energy = 0.3938174E-03-0.188E-03
 d Force =-0.2009463E+03[-0.201E+03,-0.201E+03]  d Ewald  =-0.2009463E+03 0.209E-04

[...]

 d Force =-0.1784354E-04[-0.485E-04, 0.128E-04]  d Energy = 0.2190862E-04-0.398E-04
 d Force =-0.3977307E+01[-0.398E+01,-0.398E+01]  d Ewald  =-0.3977307E+01-0.262E-09

[...]

 d Force = 0.5430463E-05[-0.275E-04, 0.384E-04]  d Energy =-0.2923150E-04 0.347E-04
 d Force = 0.3144841E+01[ 0.314E+01, 0.314E+01]  d Ewald  = 0.3144841E+01-0.146E-10

[...]

 d Force = 0.1730173E-04[-0.877E-05, 0.434E-04]  d Energy =-0.4850133E-04 0.658E-04
 d Force = 0.1254780E+01[ 0.125E+01, 0.125E+01]  d Ewald  = 0.1254780E+01 0.146E-09

[...]

 d Force =-0.1369163E-05[-0.712E-05, 0.438E-05]  d Energy = 0.9383061E-06-0.231E-05
 d Force =-0.6273847E+00[-0.627E+00,-0.627E+00]  d Ewald  =-0.6273847E+00-0.240E-09

[...]

 d Force = 0.2019881E-05[-0.369E-06, 0.441E-05]  d Energy = 0.7392864E-05-0.537E-05
 d Force = 0.3883358E+00[ 0.388E+00, 0.388E+00]  d Ewald  = 0.3883358E+00 0.451E-09

[...]

 stress matrix after NEB project (eV)
     -4.44258     -0.00000     -0.00000
     -0.00000     -4.44258      0.00000
      0.00000      0.00000     -0.40587
  FORCES: max atom, RMS     0.055381    0.027421
  FORCE total and by dimension    0.086713    0.055381
  Stress total and by dimension    6.295852    4.442579
 Conjugate gradient step on ions:
 trial-energy change:   -0.000667  1 .order   -0.000437   -0.000773   -0.000102
  (g-gl).g = 0.191E-02      g.g   = 0.108E-02  gl.gl    = 0.457E-02
 g(Force)  = 0.108E-02   g(Stress)= 0.000E+00 ortho     =-0.102E-03
 gamma     =   0.41821
 trial     =   0.74696
 opt step  =   0.86029  (harmonic =   0.86029) maximal distance =0.00743645
 next E    =   -40.881650   (d E  =  -0.00044)

[...]

 d Force = 0.3807312E-04[ 0.486E-05, 0.713E-04]  d Energy =-0.8313626E-04 0.121E-03
 d Force = 0.1065010E+02[ 0.106E+02, 0.107E+02]  d Ewald  = 0.1065010E+02-0.371E-07

[...]

 stress matrix after NEB project (eV)
     -4.42807     -0.00000     -0.00000
     -0.00000     -4.42807      0.00000
     -0.00000      0.00000     -0.39483
  FORCES: max atom, RMS     0.032084    0.018688
  FORCE total and by dimension    0.059097    0.032084
  Stress total and by dimension    6.274676    4.428073
 Conjugate gradient step on ions:
 trial-energy change:   -0.000383  1 .order   -0.000300   -0.000410   -0.000189
  (g-gl).g = 0.523E-03      g.g   = 0.492E-03  gl.gl    = 0.108E-02
 g(Force)  = 0.492E-03   g(Stress)= 0.000E+00 ortho     = 0.214E-04
 gamma     =   0.48554
 trial     =   0.81496
 opt step  =   1.51473  (harmonic =   1.51473) maximal distance =0.00632268
 next E    =   -40.882300   (d E  =  -0.00038)

[...]

 eigenvalue-minimisations  :  1048
 total energy-change (2. order) :-0.2189156E-03  (-0.2753928E-03)
 number of electron      89.9999993 magnetization       0.0000014
 augmentation part       56.1496565 magnetization       0.0000008

 Broyden mixing:
  rms(total) = 0.46739E-02    rms(broyden)= 0.46720E-02
  rms(prec ) = 0.76446E-02
  weight for this iteration     100.00

 eigenvalues of (default mixing * dielectric matrix)
  average eigenvalue GAMMA=   0.4594
  0.4594

[...]

--------------------------------------- Iteration     50(   3)  ---------------------------------------

 eigenvalue-minimisations  :   536
 total energy-change (2. order) : 0.4063734E-04  (-0.1442031E-03)
 number of electron      89.9999993 magnetization       0.0000014
 augmentation part       56.1496565 magnetization       0.0000008

 Free energy of the ion-electron system (eV)
  alpha Z        PSCENC =       285.34744303
  Ewald energy   TEWEN  =     53167.12527321
  -Hartree energ DENC   =    -64103.18917816
  -exchange      EXHF   =         0.00000000
  -V(xc)+E(xc)   XCENC  =       362.92245859
  PAW double counting   =     10594.80839475   -11457.29441159
  entropy T*S    EENTRO =        -0.02702133
  eigenvalues    EBANDS =       -39.52204319
  atomic energy  EATOM  =     11152.61838693
  Solvation  Ediel_sol  =         0.00000000
  free energy    TOTEN  =       -37.21069776 eV

  energy without entropy =      -37.18367643  energy(sigma->0) =      -37.20169065

 average (electrostatic) potential at core
  the test charge radii are     0.9430  0.5201
  (the norm of the test charge is              1.0000)
       1 -68.1080       2 -68.6884       3 -68.7856       4 -68.7364       5 -68.7323
       6 -68.7742       7 -68.6928       8 -68.2217       9 -34.7210      10 -34.6715

 E-fermi :   2.0204     XC(G=0):  -8.1333     alpha+bet : -7.8182

 Fermi energy:         2.0203511664

[...]

 k-point     3 :      -0.3333    0.3333    0.0000
  band No.  band energies     occupation
      1      -2.3874      1.00000
      2      -1.6078      1.00000
      3      -1.5971      1.00000
      4      -1.5928      1.00000
      5      -1.5345      1.00000
      6      -1.4800      1.00000
      7      -1.4799      1.00000
      8      -1.4400      1.00000
      9      -1.4316      1.00000
     10      -1.4316      1.00000
     11      -1.4072      1.00000
     12      -1.4061      1.00000
     13      -1.2423      1.00000
     14      -1.2059      1.00000
     15      -1.1105      1.00000
     16      -1.0871      1.00000
     17      -0.7668      1.00000
     18      -0.7265      1.00000
     19      -0.7220      1.00000
     20      -0.6562      1.00000
     21      -0.4663      1.00000
     22      -0.4153      1.00000
     23       0.0432      1.00000
     24       0.0959      1.00000
     25       0.1690      1.00000
     26       0.1841      1.00000
     27       0.2717      1.00000
     28       0.2753      1.00000
     29       0.3064      1.00000
     30       0.3090      1.00000
     31       0.3124      1.00000
     32       0.6090      1.00000
     33       0.6673      1.00000
     34       0.7965      1.00000
     35       0.7981      1.00000
     36       0.8327      1.00000
     37       0.8920      1.00000
     38       0.9680      1.00000
     39       0.9749      1.00000
     40       1.0055      1.00000
     41       1.0772      1.00000
     42       5.7159     -0.00000
     43       5.7203     -0.00000
     44       5.7440     -0.00000
     45       5.8975     -0.00000
     46       5.9031     -0.00000
     47       6.1803     -0.00000
     48       6.2969     -0.00000
     49       6.8907     -0.00000
     50       7.0387     -0.00000
     51       7.6347      0.00000
     52       7.6362      0.00000
     53       7.7572      0.00000
     54       8.1819      0.00000
     55       8.1961      0.00000
     56       8.7768      0.00000
     57       9.1593      0.00000
     58       9.4227      0.00000
     59      10.4247      0.00000
     60      11.0306      0.00000
 Fermi energy:         2.0203511664

 spin component 2

[...]

 k-point     3 :      -0.3333    0.3333    0.0000
  band No.  band energies     occupation
      1      -2.3874      1.00000
      2      -1.6078      1.00000
      3      -1.5971      1.00000
      4      -1.5928      1.00000
      5      -1.5345      1.00000
      6      -1.4800      1.00000
      7      -1.4799      1.00000
      8      -1.4400      1.00000
      9      -1.4316      1.00000
     10      -1.4316      1.00000
     11      -1.4072      1.00000
     12      -1.4061      1.00000
     13      -1.2423      1.00000
     14      -1.2059      1.00000
     15      -1.1105      1.00000
     16      -1.0871      1.00000
     17      -0.7668      1.00000
     18      -0.7265      1.00000
     19      -0.7220      1.00000
     20      -0.6562      1.00000
     21      -0.4663      1.00000
     22      -0.4153      1.00000
     23       0.0432      1.00000
     24       0.0959      1.00000
     25       0.1690      1.00000
     26       0.1841      1.00000
     27       0.2717      1.00000
     28       0.2753      1.00000
     29       0.3064      1.00000
     30       0.3090      1.00000
     31       0.3124      1.00000
     32       0.6090      1.00000
     33       0.6673      1.00000
     34       0.7965      1.00000
     35       0.7981      1.00000
     36       0.8327      1.00000
     37       0.8920      1.00000
     38       0.9680      1.00000
     39       0.9749      1.00000
     40       1.0055      1.00000
     41       1.0772      1.00000
     42       5.7159     -0.00000
     43       5.7203     -0.00000
     44       5.7440     -0.00000
     45       5.8975     -0.00000
     46       5.9031     -0.00000
     47       6.1803     -0.00000
     48       6.2969     -0.00000
     49       6.8907     -0.00000
     50       7.0387     -0.00000
     51       7.6347      0.00000
     52       7.6362      0.00000
     53       7.7572      0.00000
     54       8.1819      0.00000
     55       8.1961      0.00000
     56       8.7768      0.00000
     57       9.1593      0.00000
     58       9.4227      0.00000
     59      10.4247      0.00000
     60      11.0306      0.00000

[...]

 soft charge-density along one line, spin component           2
         0         1         2         3         4         5         6         7         8         9
 total charge-density along one line

------------------------ aborting loop because EDIFF is reached ----------------------------------------

         DFTD3 V3.0 Rev 1
 Edisp (eV)   -3.67180

 E6    (eV) :    -1.5310
 E8    (eV) :    -2.1408
 % E8        : 58.30

  FORCE on cell =-STRESS in cart. coord.  units (eV):
  Direction    XX          YY          ZZ          XY          YZ          ZX
  Alpha Z   285.34744   285.34744   285.34744
  Ewald   59049.63902 59049.63902-64932.16629    -0.00000     0.00000    -0.00000
  Hartree 62283.81150 62283.81150-60464.91754     0.00000    -0.00000    -0.00000
  E(xc)    -520.99106  -520.99090  -521.08502    -0.00013     0.00000     0.00000
  Local  ************************124328.65810     0.00402    -0.00000    -0.00001
  n-local  -178.22068  -171.27951  -180.11613     6.01157    -1.12560     1.95606
  augment   759.79093   759.79538   753.58553    -0.00386     0.00000     0.00001
  Kinetic   755.68870   729.31310   734.00157   -22.84136    -2.19326     3.79889
  Fock        0.00000     0.00000     0.00000     0.00000     0.00000     0.00000
  vdW        -4.34387    -4.34387    -3.75227     0.00000     0.00000     0.00000
  Total      -4.44534    -4.44534    -0.44463    -0.00000    -0.00000    -0.00000
  in kB     -42.07043   -42.07043    -4.20792    -0.00000    -0.00000    -0.00000

 VOLUME and BASIS-vectors are now :
  energy-cutoff  :      400.00
  volume of cell :      169.29
      direct lattice vectors                 reciprocal lattice vectors
     2.566797733  0.000000000  0.000000000     0.389590495 -0.224930177  0.000000000
     1.283398867  2.222912043  0.000000000     0.000000000  0.449860355  0.000000000
     0.000000000  0.000000000 29.670471191     0.000000000  0.000000000  0.033703543

  length of vectors
     2.566797733  2.566797733 29.670471191     0.449860355  0.449860355  0.033703543

 FORCES acting on ions
    electron-ion (+dipol)            ewald-force                    non-local-force                 convergence-correction
   -.314E-05 -.181E-05 0.608E+04   0.105E-07 -.334E-08 -.607E+04   0.694E-17 0.139E-16 -.347E+01   -.876E-06 -.506E-06 -.210E+00
   0.396E-05 0.351E-05 0.437E+04   -.266E-07 0.218E-09 -.437E+04   0.139E-16 -.139E-16 0.413E+00   -.274E-05 -.158E-05 -.402E-01
   -.770E-05 -.417E-05 0.266E+04   0.258E-07 0.102E-07 -.266E+04   0.347E-17 0.000E+00 0.169E+00   -.177E-05 -.102E-05 0.326E+00
   0.141E-05 0.815E-06 0.971E+03   0.315E-09 -.102E-07 -.971E+03   -.173E-17 0.173E-17 -.850E+00   0.125E-05 0.724E-06 0.705E+00
   0.259E-05 0.272E-05 -.733E+03   -.255E-07 0.123E-09 0.732E+03   0.867E-18 -.173E-17 0.657E+00   0.145E-05 0.838E-06 0.716E+00
   -.461E-05 -.238E-05 -.242E+04   0.253E-07 0.102E-07 0.242E+04   -.867E-18 -.173E-17 -.138E+00   0.109E-05 0.632E-06 0.575E+00
   0.253E-05 0.146E-05 -.412E+04   0.676E-09 -.105E-07 0.412E+04   0.694E-17 0.139E-16 0.830E-01   -.125E-05 -.721E-06 0.905E-01
   0.679E-05 0.516E-05 -.583E+04   -.104E-07 0.242E-08 0.582E+04   0.139E-16 0.139E-16 0.446E+01   -.544E-06 -.314E-06 -.191E+00
   0.255E-06 0.210E-06 -.498E+03   -.270E-10 0.759E-09 0.494E+03   -.217E-18 0.000E+00 0.481E+01   0.884E-09 0.521E-09 -.414E-01
   0.160E-06 0.155E-06 -.480E+03   -.563E-11 0.906E-10 0.485E+03   0.000E+00 0.217E-18 -.487E+01   -.118E-10 -.785E-11 -.444E-01
   0.225E-05 0.568E-05 -.311E+01   0.219E-12 -.563E-13 0.227E-12   0.432E-16 0.262E-16 0.127E+01   -.337E-05 -.195E-05 0.188E+01

 POSITION                                       TOTAL-FORCE (eV/Angst)
     -0.00000     -0.00000      0.01363        -0.000000     -0.000000     -0.017364
      1.28340      0.74097      2.00694        -0.000000     -0.000000     -0.007635
      2.56680      1.48194      4.02355        -0.000000     -0.000000      0.002344
     -0.00000     -0.00000      6.05149        -0.000000     -0.000000      0.027921
      1.28340      0.74097      8.06742         0.000000      0.000000     -0.021312
      2.56680      1.48194     10.09781        -0.000000     -0.000000      0.017458
      0.00000     -0.00000     12.11911        -0.000000     -0.000000      0.014280
      1.28340      0.74097     14.11684         0.000000      0.000000     -0.029598
      2.56680      1.48194     16.30919        -0.000000     -0.000000      0.024671
      2.56680      1.48194     17.06794        -0.000000     -0.000000     -0.010766
    total drift:                               -0.000001      0.000004      0.041811

  FREE ENERGIE OF THE ION-ELECTRON SYSTEM (eV)
  free  energy   TOTEN  =       -40.88250145 eV

  energy  without entropy=      -40.85548012  energy(sigma->0) =      -40.87349434

 d Force = 0.1386241E-03[ 0.115E-03, 0.163E-03]  d Energy = 0.1987919E-03-0.602E-04
 d Force = 0.1939105E+02[ 0.194E+02, 0.194E+02]  d Ewald  = 0.1939105E+02-0.137E-06

 stress matrix after NEB project (eV)
     -4.44534     -0.00000     -0.00000
     -0.00000     -4.44534     -0.00000
     -0.00000     -0.00000     -0.44463
  FORCES: max atom, RMS     0.029598    0.019257
  FORCE total and by dimension    0.060896    0.029598
  Stress total and by dimension    6.302360    4.445337

 reached required accuracy - stopping structural energy minimisation