 vasp.6.3.2 27Jun22 (build Aug 17 2022 15:43:34) complex

 executed on           tv2STDVTST date 2025.01.21  16:23:08

 INCAR:
   ISTART = 0
   ICHARG = 2
   IPIPOL = 3
   IVDW = 11
   IDIPOL = 3
   IVDW = 11
   ISPIN = 2
   ENCUT = 400
   PREC = Normal
   EDIFF = 2E-04
   GGA = PE
   ISMEAR = 1
   SIGMA = 0.2
   LREAL = .FALSE.
   ISYM = 1
   NSW = 800
   IBRION = 2
   POTIM = 0.5
   ISIF = 2
   EDIFFG = -.03
   NPAR = 4
   LWAVE = .FALSE.
   LCHARG = .FALSE.

 POTCAR:    PAW_PBE Cu 22Jun2005
|           W    W    AA    RRRRR   N    N  II  N    N   GGGG   !!!           |
|           W    W   A  A   R    R  NN   N  II  NN   N  G    G  !!!           |
|           W    W  A    A  R    R  N N  N  II  N N  N  G       !!!           |
|           W WW W  AAAAAA  RRRRR   N  N N  II  N  N N  G  GGG   !            |
|           WW  WW  A    A  R   R   N   NN  II  N   NN  G    G                |
|           W    W  A    A  R    R  N    N  II  N    N   GGGG   !!!           |
|     You use a magnetic or noncollinear calculation, but did not specify     |
|     the initial magnetic moment with the MAGMOM tag. Note that a            |
|     default of 1 will be used for all atoms. This ferromagnetic setup       |
|     may break the symmetry of the crystal, in particular it may rule        |
|     out finding an antiferromagnetic solution. Thence, we recommend         |
|     setting the initial magnetic moment manually or verifying carefully     |
|     that this magnetic setup is desired.                                    |

   TITEL  = PAW_PBE Cu 22Jun2005
   POMASS =   63.546; ZVAL   =   11.000    mass and valenz
   ENMAX  =  295.446; ENMIN  =  221.585 eV

  PAW_PBE Cu 22Jun2005                  :

 POSCAR: FCC Cu
  positions in cartesian coordinates
  velocities in cartesian coordinates
 exchange correlation table for  LEXCH =        8
   RHO(1)=    0.500       N(1)  =     2000
   RHO(2)=  100.500       N(2)  =     4000

 VTST: version 4.2, (08/11/21)

 CHAIN: initializing optimizer

 OPT: Using VASP Conjugate-Gradient optimizer
 CHAIN: Read ICHAIN            0

 POSCAR: FCC Cu
  positions in cartesian coordinates
  velocities in cartesian coordinates

 ion  position               nearest neighbor table
   1  0.000  0.000  0.000-   9 2.57   6 2.57   5 2.57   8 2.57   7 2.57   2 2.57   2 2.57
   2  0.000  0.500  0.000-  10 2.57   5 2.57   6 2.57   7 2.57   8 2.57   1 2.57   1 2.57
   3  0.500  0.000  0.000-  11 2.57   8 2.57   6 2.57   7 2.57   5 2.57   4 2.57   4 2.57
   4  0.500  0.500  0.000-  12 2.57   7 2.57   5 2.57   8 2.57   6 2.57   3 2.57   3 2.57
   5  0.250  0.250  0.057-  13 2.57  10 2.57  12 2.57   9 2.57  11 2.57   2 2.57   4 2.57   1 2.57
                             3 2.57   6 2.57   6 2.57
   6  0.250  0.750  0.057-  14 2.57   9 2.57  11 2.57  10 2.57  12 2.57   1 2.57   3 2.57   2 2.57
                             4 2.57   5 2.57   5 2.57
   7  0.750  0.250  0.057-  15 2.57  12 2.57  11 2.57  10 2.57   4 2.57   9 2.57   3 2.57   2 2.57
                             1 2.57   8 2.57   8 2.57
   8  0.750  0.750  0.057-  16 2.57  11 2.57  12 2.57   9 2.57  10 2.57   3 2.57   4 2.57   1 2.57
                             2 2.57   7 2.57   7 2.57
   9  0.000  0.000  0.113-   1 2.57  17 2.57   6 2.57   5 2.57   8 2.57   7 2.57  14 2.57  13 2.57
                            16 2.57  15 2.57  10 2.57  10 2.57
  10  0.000  0.500  0.113-   2 2.57  18 2.57   5 2.57   6 2.57   7 2.57  13 2.57   8 2.57  14 2.57
                            15 2.57  16 2.57   9 2.57   9 2.57
  11  0.500  0.000  0.113-   3 2.57  19 2.57   8 2.57   6 2.57   7 2.57   5 2.57  16 2.57  14 2.57
                            15 2.57  13 2.57  12 2.57  12 2.57
  12  0.500  0.500  0.113-   4 2.57  20 2.57   7 2.57   5 2.57   8 2.57   6 2.57  15 2.57  13 2.57
                            16 2.57  14 2.57  11 2.57  11 2.57
  13  0.250  0.250  0.170-   5 2.57  21 2.57  18 2.57  20 2.57  17 2.57  10 2.57  19 2.57  12 2.57
                             9 2.57  11 2.57  14 2.57  14 2.57
  14  0.250  0.750  0.170-   6 2.57  22 2.57  17 2.57  19 2.57  18 2.57  20 2.57   9 2.57  11 2.57
                            10 2.57  12 2.57  13 2.57  13 2.57
  15  0.750  0.250  0.170-   7 2.57  23 2.57  20 2.57  19 2.57  12 2.57  18 2.57  11 2.57  17 2.57
                            10 2.57   9 2.57  16 2.57  16 2.57
  16  0.750  0.750  0.170-   8 2.57  24 2.57  19 2.57  20 2.57  11 2.57  17 2.57  12 2.57  18 2.57
                             9 2.57  10 2.57  15 2.57  15 2.57
  17  0.000  0.000  0.226-  25 2.57   9 2.57  14 2.57  22 2.57  13 2.57  21 2.57  16 2.57  24 2.57
                            15 2.57  23 2.57  18 2.57  18 2.57
  18  0.000  0.500  0.226-  26 2.57  10 2.57  13 2.57  21 2.57  14 2.57  22 2.57  15 2.57  23 2.57
                            16 2.57  24 2.57  17 2.57  17 2.57
  19  0.500  0.000  0.226-  27 2.57  11 2.57  16 2.57  14 2.57  24 2.57  22 2.57  15 2.57  13 2.57
                            23 2.57  21 2.57  20 2.57  20 2.57
  20  0.500  0.500  0.226-  28 2.57  12 2.57  15 2.57  13 2.57  23 2.57  21 2.57  16 2.57  14 2.57
                            24 2.57  22 2.57  19 2.57  19 2.57
  21  0.250  0.250  0.283-  13 2.57  26 2.57  28 2.57  18 2.57  20 2.57  25 2.57  27 2.57  17 2.57
                            19 2.57  22 2.57  22 2.57
  22  0.250  0.750  0.283-  14 2.57  25 2.57  27 2.57  17 2.57  19 2.57  26 2.57  28 2.57  18 2.57
                            20 2.57  21 2.57  21 2.57
  23  0.750  0.250  0.283-  15 2.57  28 2.57  20 2.57  27 2.57  19 2.57  26 2.57  18 2.57  25 2.57
                            17 2.57  24 2.57  24 2.57
  24  0.750  0.750  0.283-  16 2.57  27 2.57  19 2.57  28 2.57  20 2.57  25 2.57  17 2.57  26 2.57
                            18 2.57  23 2.57  23 2.57
  25  0.000  0.000  0.339-  17 2.57  22 2.57  21 2.57  24 2.57  23 2.57  26 2.57  26 2.57
  26  0.000  0.500  0.339-  18 2.57  21 2.57  22 2.57  23 2.57  24 2.57  25 2.57  25 2.57
  27  0.500  0.000  0.339-  19 2.57  24 2.57  22 2.57  23 2.57  21 2.57  28 2.57  28 2.57
  28  0.500  0.500  0.339-  20 2.57  23 2.57  21 2.57  24 2.57  22 2.57  27 2.57  27 2.57

  LATTYP: Found a simple orthorhombic cell.
 ALAT       =     5.1335954666
 B/A-ratio  =     1.4142135422
 C/A-ratio  =     4.4219286751

  Lattice vectors:

 A1 = (   0.0000000000,  -5.1335954666,   0.0000000000)
 A2 = (   7.2600002289,   0.0000000000,   0.0000000000)
 A3 = (   0.0000000000,   0.0000000000,  22.7003930000)

Analysis of symmetry for initial positions (statically):
 Subroutine PRICEL returns following result:

[...]

   4 primitive cells build up your supercell.

 Routine SETGRP: Setting up the symmetry group for a
 simple orthorhombic supercell.

 Subroutine GETGRP returns: Found  8 space group operations
 (whereof  4 operations were pure point group operations)
 out of a pool of  8 trial point group operations.

The static configuration has the point symmetry C_2v.
 The point group associated with its full space group is D_2h.

Analysis of symmetry for dynamics (positions and initial velocities):
 Subroutine PRICEL returns following result:

[...]

The dynamic configuration has the point symmetry C_2v.
 The point group associated with its full space group is D_2h.

Analysis of constrained symmetry for selective dynamics:
 Subroutine PRICEL returns following result:

[...]

The constrained configuration has the point symmetry C_2v.

Analysis of structural, dynamic, and magnetic symmetry:
 Subroutine PRICEL returns following result:

  LATTYP: Found a simple orthorhombic cell.
 ALAT       =     2.5667977330
 B/A-ratio  =     1.4142135422
 C/A-ratio  =     8.8438573512

  Lattice vectors:

 A1 = (   0.0000000000,  -2.5667977330,   0.0000000000)
 A2 = (   3.6300001140,   0.0000000000,   0.0000000000)
 A3 = (   0.0000000000,   0.0000000000,  22.7003930000)

   4 primitive cells build up your supercell.

 Routine SETGRP: Setting up the symmetry group for a
 simple orthorhombic supercell.

 Subroutine GETGRP returns: Found  4 space group operations
 (whereof  4 operations were pure point group operations)
 out of a pool of  8 trial point group operations.

The overall configuration has the point symmetry C_2v.

 Subroutine INISYM returns: Found  4 space group operations
 (whereof  4 operations are pure point group operations),
 and found     4 'primitive' translations

                                     Primitive cell

  volume of cell :     211.5104

  direct lattice vectors                    reciprocal lattice vectors
     0.000000000 -2.566797733  0.000000000     0.000000000 -0.389590495  0.000000000
     3.630000114  0.000000000  0.000000000     0.275482085  0.000000000  0.000000000
     0.000000000  0.000000000 22.700393000     0.000000000  0.000000000  0.044052101

  length of vectors
     2.566797733  3.630000114 22.700393000     0.389590495  0.275482085  0.044052101

  position of ions in fractional coordinates (direct lattice)
     0.000000000  0.000000000  0.000000000
     0.500000000  0.500000000  0.056536415
     0.000000000  0.000000000  0.113072829
     0.500000000  0.500000000  0.169609244
     0.000000000  0.000000000  0.226145658
     0.500000000  0.500000000  0.282682073
     0.000000000  0.000000000  0.339218487

  ion indices of the primitive-cell ions
   primitive index   ion index
                 1           1
                 2           6
                 3           9
                 4          14
                 5          17
                 6          22
                 7          25

 KPOINTS: Auto-mesh

Automatic generation of k-mesh.
 Grid dimensions read from file:
 generate k-points for:    3    3    1

 Generating k-lattice:

  Cartesian coordinates                     Fractional coordinates (reciprocal lattice)
     0.045913681  0.000000000  0.000000000     0.333333333  0.000000000  0.000000000
     0.000000000  0.064931749  0.000000000     0.000000000  0.333333333  0.000000000
     0.000000000  0.000000000  0.044052101     0.000000000  0.000000000  1.000000000

  Length of vectors
     0.045913681  0.064931749  0.044052101

  Shift w.r.t. Gamma in fractional coordinates (k-lattice)
     0.000000000  0.000000000  0.000000000

 Subroutine IBZKPT returns following result:

 Found      4 irreducible k-points:

 Following reciprocal coordinates:
            Coordinates               Weight
  0.000000  0.000000  0.000000      1.000000
  0.333333  0.000000  0.000000      2.000000
  0.000000  0.333333  0.000000      2.000000
  0.333333  0.333333  0.000000      4.000000

 Following cartesian coordinates:
            Coordinates               Weight
  0.000000  0.000000  0.000000      1.000000
  0.045914  0.000000  0.000000      2.000000
  0.000000  0.064932  0.000000      2.000000
  0.045914  0.064932  0.000000      4.000000

 SYSTEM =  unknown system
 POSCAR =  FCC Cu

 Startparameter for this run:
   NWRITE =      2    write-flag & timer
   PREC   = normal    normal or accurate (medium, high low for compatibility)
   ISTART =      0    job   : 0-new  1-cont  2-samecut
   ICHARG =      2    charge: 1-file 2-atom 10-const
   ISPIN  =      2    spin polarized calculation?
   LNONCOLLINEAR =      F non collinear calculations
[...]
  alpha Z        PSCENC =       677.69866932
  Ewald energy   TEWEN  =    137511.42256965
  -Hartree energ DENC   =   -174703.51305570
  -exchange      EXHF   =         0.00000000
  -V(xc)+E(xc)   XCENC  =      1247.40652956
  PAW double counting   =     36623.70194391   -39639.40818724
  entropy T*S    EENTRO =        -0.00531717
  eigenvalues    EBANDS =      -760.94484984
  atomic energy  EATOM  =     38946.81392559
  Solvation  Ediel_sol  =         0.00000000
  free energy    TOTEN  =       -96.82777191 eV

  energy without entropy =      -96.82245474  energy(sigma->0) =      -96.82599952

 average (electrostatic) potential at core
  the test charge radii are     0.9430
  (the norm of the test charge is              1.0000)
       1 -70.4326       2 -70.4326       3 -70.4326       4 -70.4326       5 -70.8697
       6 -70.8697       7 -70.8697       8 -70.8697       9 -70.8820      10 -70.8820
      11 -70.8820      12 -70.8820      13 -70.8817      14 -70.8817      15 -70.8817
      16 -70.8817      17 -70.8765      18 -70.8765      19 -70.8765      20 -70.8765
      21 -70.8793      22 -70.8793      23 -70.8793      24 -70.8793      25 -70.4991
      26 -70.4991      27 -70.4991      28 -70.4991

 E-fermi :   0.3910     XC(G=0):  -5.8260     alpha+bet : -5.2470

 Fermi energy:         0.3910062927

[...]

 k-point     4 :       0.3333    0.3333    0.0000
  band No.  band energies     occupation
      1      -7.6401      1.00000
      2      -6.7389      1.00000
      3      -6.4555      1.00000
      4      -5.9495      1.00000
      5      -5.6545      1.00000
      6      -5.3435      1.00000
      7      -5.0225      1.00000
      8      -4.9510      1.00000
      9      -4.5397      1.00000
     10      -4.4681      1.00000
     11      -4.3167      1.00000
     12      -4.3002      1.00000
     13      -4.0931      1.00000
     14      -4.0605      1.00000
     15      -4.0203      1.00000
     16      -3.9362      1.00000
     17      -3.9040      1.00000
     18      -3.8688      1.00000
     19      -3.7386      1.00000
     20      -3.7301      1.00000
     21      -3.6980      1.00000
     22      -3.6921      1.00000
     23      -3.6863      1.00000
     24      -3.6786      1.00000
     25      -3.6784      1.00000
     26      -3.6257      1.00000
     27      -3.6223      1.00000
     28      -3.5901      1.00000
     29      -3.5505      1.00000
     30      -3.4722      1.00000
     31      -3.4569      1.00000
     32      -3.4399      1.00000
     33      -3.3930      1.00000
     34      -3.3080      1.00000
     35      -3.3054      1.00000
     36      -3.2352      1.00000
     37      -3.1784      1.00000
     38      -3.1465      1.00000
     39      -3.1004      1.00000
     40      -3.0922      1.00000
     41      -3.0777      1.00000
     42      -3.0686      1.00000
     43      -3.0489      1.00000
     44      -3.0108      1.00000
     45      -3.0025      1.00000
     46      -2.9979      1.00000
     47      -2.9783      1.00000
     48      -2.9685      1.00000
     49      -2.9644      1.00000
     50      -2.9441      1.00000
     51      -2.9043      1.00000
     52      -2.8673      1.00000
     53      -2.8081      1.00000
     54      -2.8076      1.00000
     55      -2.7827      1.00000
     56      -2.7586      1.00000
     57      -2.7115      1.00000
     58      -2.6985      1.00000
     59      -2.6788      1.00000
     60      -2.6578      1.00000
[...]
    186       6.8910      0.00000
    187       7.1126      0.00000
    188       7.1369      0.00000
    189       7.1925      0.00000
    190       7.2641      0.00000
    191       7.4399      0.00000
    192       7.4792      0.00000
    193       7.5870      0.00000
    194       7.9101      0.00000
    195       8.1819      0.00000
    196       8.2757      0.00000
    197       8.4674      0.00000
    198       8.4723      0.00000
    199       8.7839      0.00000
    200       8.9075      0.00000
 Fermi energy:         0.3910062927

 spin component 2

[...]

 k-point     4 :       0.3333    0.3333    0.0000
  band No.  band energies     occupation
      1      -7.6401      1.00000
      2      -6.7389      1.00000
      3      -6.4555      1.00000
      4      -5.9495      1.00000
      5      -5.6545      1.00000
      6      -5.3435      1.00000
      7      -5.0225      1.00000
      8      -4.9510      1.00000
      9      -4.5397      1.00000
     10      -4.4681      1.00000
     11      -4.3167      1.00000
     12      -4.3002      1.00000
     13      -4.0931      1.00000
     14      -4.0605      1.00000
     15      -4.0203      1.00000
     16      -3.9362      1.00000
     17      -3.9040      1.00000
     18      -3.8688      1.00000
     19      -3.7386      1.00000
     20      -3.7301      1.00000
     21      -3.6980      1.00000
     22      -3.6921      1.00000
     23      -3.6863      1.00000
     24      -3.6786      1.00000
     25      -3.6784      1.00000
     26      -3.6257      1.00000
     27      -3.6223      1.00000
     28      -3.5901      1.00000
     29      -3.5505      1.00000
     30      -3.4722      1.00000
     31      -3.4569      1.00000
     32      -3.4399      1.00000
     33      -3.3930      1.00000
     34      -3.3080      1.00000
     35      -3.3054      1.00000
     36      -3.2352      1.00000
     37      -3.1784      1.00000
     38      -3.1465      1.00000
     39      -3.1004      1.00000
     40      -3.0922      1.00000
     41      -3.0777      1.00000
     42      -3.0686      1.00000
     43      -3.0489      1.00000
     44      -3.0108      1.00000
     45      -3.0025      1.00000
     46      -2.9979      1.00000
     47      -2.9783      1.00000
     48      -2.9685      1.00000
     49      -2.9644      1.00000
     50      -2.9441      1.00000
     51      -2.9043      1.00000
     52      -2.8673      1.00000
     53      -2.8081      1.00000
     54      -2.8076      1.00000
     55      -2.7827      1.00000
     56      -2.7586      1.00000
     57      -2.7115      1.00000
     58      -2.6985      1.00000
     59      -2.6788      1.00000
     60      -2.6578      1.00000
[...]
    186       6.8910      0.00000
    187       7.1126      0.00000
    188       7.1370      0.00000
    189       7.1926      0.00000
    190       7.2643      0.00000
    191       7.4400      0.00000
    192       7.4792      0.00000
    193       7.5870      0.00000
    194       7.9102      0.00000
    195       8.1820      0.00000
    196       8.2758      0.00000
    197       8.4675      0.00000
    198       8.4724      0.00000
    199       8.7839      0.00000
    200       8.9076      0.00000

[...]

 soft charge-density along one line, spin component           2
         0         1         2         3         4         5         6         7         8         9
 total charge-density along one line

------------------------ aborting loop because EDIFF is reached ----------------------------------------

 DIPCOR: dipole corrections for dipol
 direction  3 min pos   155,
 dipolmoment           0.000000      0.000000      0.016846 electrons x Angstroem
 Tr[quadrupol]     -2389.136947

 energy correction for charged system         0.000000 eV
 dipol+quadrupol energy correction            0.000030 eV
 added-field ion interaction          0.000000 eV  (added to PSCEN)

  *************** adding dipol energy to TOTEN NOW ****************

         DFTD3 V3.0 Rev 1
 Edisp (eV)  -10.17180

 E6    (eV) :    -4.0083
 E8    (eV) :    -6.1635
 % E8        : 60.59

  FORCE on cell =-STRESS in cart. coord.  units (eV):
  Direction    XX          YY          ZZ          XY          YZ          ZX
  Alpha Z   677.69867   677.69867   677.69867
  Ewald  157291.56141157929.65003************    -0.00000     0.00000    -0.00000
  Hartree167804.54525168248.11543************    -0.00000    -0.00000    -0.00000
  E(xc)   -1799.34088 -1798.61341 -1801.35068    -0.00000     0.00000     0.00000
  Local  ************************335627.66855     0.00000    -0.00000     0.00000
  n-local  -608.40737  -603.57930  -610.87690     2.75021     0.00000    -0.00000
  augment  2649.81258  2647.22694  2651.82409     0.00000     0.00000    -0.00000
  Kinetic  2514.21999  2511.38102  2518.95029     1.33820    -0.00000     0.00000
  Fock        0.00000     0.00000     0.00000     0.00000     0.00000     0.00000
  vdW       -12.46815   -12.49833    -8.06460    -0.00000     0.00000    -0.00000
  Total     -14.51419   -13.50964    -3.53893     0.00000     0.00000     0.00000
  in kB     -27.48600   -25.58366    -6.70179     0.00000     0.00000     0.00000

 VOLUME and BASIS-vectors are now :
  energy-cutoff  :      400.00
  volume of cell :      846.04
      direct lattice vectors                 reciprocal lattice vectors
     7.260000229  0.000000000  0.000000000     0.137741042  0.000000000  0.000000000
     0.000000000  5.133595467  0.000000000     0.000000000  0.194795248  0.000000000
     0.000000000  0.000000000 22.700393000     0.000000000  0.000000000  0.044052101

  length of vectors
     7.260000229  5.133595467 22.700393000     0.137741042  0.194795248  0.044052101

 FORCES acting on ions
    electron-ion (+dipol)            ewald-force                    non-local-force                 convergence-correction
   -.851E-13 -.663E-12 0.412E+04   -.304E-06 -.144E-06 -.412E+04   0.000E+00 0.132E-22 -.541E+01   0.323E-09 0.155E-09 -.118E-01
   -.820E-13 0.116E-05 0.412E+04   -.304E-06 0.196E-06 -.412E+04   -.662E-23 0.662E-23 -.541E+01   0.324E-09 -.273E-09 -.118E-01
   0.183E-05 -.134E-11 0.412E+04   0.164E-06 -.144E-06 -.412E+04   -.199E-22 0.000E+00 -.541E+01   -.633E-09 0.156E-09 -.118E-01
   0.183E-05 0.116E-05 0.412E+04   0.164E-06 0.196E-06 -.412E+04   0.000E+00 0.132E-22 -.541E+01   -.634E-09 -.273E-09 -.118E-01
   0.837E-06 -.132E-05 0.293E+04   -.164E-06 -.236E-06 -.293E+04   -.265E-22 0.000E+00 -.312E+00   0.373E-09 0.205E-09 0.841E-01
   0.837E-06 -.188E-06 0.293E+04   -.164E-06 0.129E-06 -.293E+04   0.000E+00 0.000E+00 -.312E+00   0.373E-09 0.430E-10 0.841E-01
   0.251E-05 -.132E-05 0.293E+04   0.451E-06 -.236E-06 -.293E+04   0.331E-22 0.000E+00 -.312E+00   0.622E-11 0.203E-09 0.841E-01
   0.251E-05 -.188E-06 0.293E+04   0.451E-06 0.129E-06 -.293E+04   0.662E-23 0.000E+00 -.312E+00   0.604E-11 0.464E-10 0.841E-01
   -.825E-13 0.603E-12 0.146E+04   -.500E-06 -.149E-06 -.146E+04   0.000E+00 0.000E+00 -.575E+00   0.455E-09 0.222E-09 -.218E+00
   -.735E-13 0.113E-05 0.146E+04   -.500E-06 0.259E-06 -.146E+04   0.000E+00 -.662E-23 -.575E+00   0.456E-09 -.363E-09 -.218E+00
   0.169E-05 -.548E-12 0.146E+04   0.207E-06 -.149E-06 -.146E+04   0.000E+00 -.662E-23 -.575E+00   -.797E-09 0.222E-09 -.218E+00
   0.169E-05 0.113E-05 0.146E+04   0.207E-06 0.259E-06 -.146E+04   0.000E+00 0.662E-23 -.575E+00   -.798E-09 -.363E-09 -.218E+00
   0.842E-06 -.132E-05 -.723E+01   -.200E-06 -.259E-06 0.703E+01   -.132E-22 -.132E-22 -.908E-01   0.126E-09 0.448E-10 0.272E+00
   0.842E-06 -.188E-06 -.723E+01   -.200E-06 0.147E-06 0.703E+01   -.132E-22 -.207E-22 -.908E-01   0.125E-09 0.107E-10 0.272E+00
   0.253E-05 -.132E-05 -.723E+01   0.499E-06 -.259E-06 0.703E+01   0.265E-22 -.132E-22 -.908E-01   0.445E-10 0.434E-10 0.272E+00
   0.253E-05 -.188E-06 -.723E+01   0.499E-06 0.147E-06 0.703E+01   -.132E-22 -.194E-22 -.908E-01   0.450E-10 0.110E-10 0.272E+00
   -.756E-13 -.325E-12 -.142E+04   -.495E-06 -.151E-06 0.142E+04   0.265E-22 0.000E+00 0.120E+01   -.102E-09 -.175E-10 -.240E+00
   -.829E-13 0.113E-05 -.142E+04   -.495E-06 0.258E-06 0.142E+04   0.265E-22 -.662E-23 0.120E+01   -.102E-09 -.126E-10 -.240E+00
   0.170E-05 -.154E-11 -.142E+04   0.209E-06 -.151E-06 0.142E+04   0.265E-22 -.662E-23 0.120E+01   -.439E-10 -.167E-10 -.240E+00
   0.170E-05 0.113E-05 -.142E+04   0.209E-06 0.258E-06 0.142E+04   0.265E-22 0.662E-23 0.120E+01   -.439E-10 -.138E-10 -.240E+00
   0.830E-06 -.131E-05 -.296E+04   -.163E-06 -.240E-06 0.297E+04   -.397E-22 0.000E+00 -.532E+00   -.204E-09 -.979E-10 0.138E+00
   0.830E-06 -.188E-06 -.296E+04   -.163E-06 0.127E-06 0.297E+04   0.000E+00 -.331E-23 -.532E+00   -.204E-09 0.455E-11 0.138E+00
   0.249E-05 -.131E-05 -.296E+04   0.462E-06 -.240E-06 0.297E+04   0.430E-22 -.662E-23 -.532E+00   0.531E-10 -.971E-10 0.138E+00
   0.249E-05 -.188E-06 -.296E+04   0.462E-06 0.127E-06 0.297E+04   0.298E-22 -.662E-23 -.532E+00   0.530E-10 0.429E-11 0.138E+00
   -.711E-13 -.100E-11 -.412E+04   -.332E-06 -.143E-06 0.412E+04   -.132E-22 0.000E+00 0.550E+01   -.417E-09 -.229E-09 -.300E+00
   -.784E-13 0.115E-05 -.412E+04   -.332E-06 0.206E-06 0.412E+04   -.132E-22 -.662E-23 0.550E+01   -.418E-09 0.296E-09 -.300E+00
   0.180E-05 0.496E-12 -.412E+04   0.166E-06 -.143E-06 0.412E+04   0.199E-22 0.000E+00 0.550E+01   0.756E-09 -.229E-09 -.300E+00
   0.180E-05 0.115E-05 -.412E+04   0.166E-06 0.206E-06 0.412E+04   0.132E-22 -.132E-22 0.550E+01   0.757E-09 0.297E-09 -.300E+00
   0.341E-04 0.136E-06 0.187E+01   -.936E-13 0.107E-12 -.909E-12   0.119E-21 -.831E-22 -.859E+00   -.121E-09 -.205E-10 -.110E+01

 POSITION                                       TOTAL-FORCE (eV/Angst)
      0.00000      0.00000      0.00000         0.000000     -0.000000      0.462012
      0.00000      2.56680      0.00000        -0.000000      0.000000      0.462012
      3.63000      0.00000      0.00000         0.000000     -0.000000      0.462012
      3.63000      2.56680      0.00000         0.000000      0.000000      0.462012
      1.81500      1.28340      1.28340        -0.000000     -0.000000     -0.447559
      1.81500      3.85020      1.28340         0.000000     -0.000000     -0.447559
      5.44500      1.28340      1.28340         0.000000     -0.000000     -0.447559
      5.44500      3.85020      1.28340        -0.000000     -0.000000     -0.447559
      0.00000      0.00000      2.51669         0.000000     -0.000000     -0.001217
     -0.00000      2.56680      2.51669         0.000000      0.000000     -0.001217
      3.63000     -0.00000      2.51669         0.000000     -0.000000     -0.001217
      3.63000      2.56680      2.51669         0.000000     -0.000000     -0.001217
      1.81500      1.28340      3.76382        -0.000000      0.000000     -0.000578
      1.81500      3.85020      3.76382        -0.000000     -0.000000     -0.000578
      5.44500      1.28340      3.76382         0.000000      0.000000     -0.000578
      5.44500      3.85020      3.76382         0.000000     -0.000000     -0.000578
      0.00000     -0.00000      4.97730        -0.000000      0.000000      0.003907
      0.00000      2.56680      4.97730        -0.000000      0.000000      0.003907
      3.63000     -0.00000      4.97730        -0.000000     -0.000000      0.003907
      3.63000      2.56680      4.97730        -0.000000     -0.000000      0.003907
      1.81500      1.28340      6.28119        -0.000000      0.000000      0.004955
      1.81500      3.85020      6.28119         0.000000      0.000000      0.004955
      5.44500      1.28340      6.28119        -0.000000      0.000000      0.004955
      5.44500      3.85020      6.28119        -0.000000      0.000000      0.004955
     -0.00000     -0.00000      7.42640        -0.000000     -0.000000     -0.021520
     -0.00000      2.56680      7.42640         0.000000     -0.000000     -0.021520
      3.63000     -0.00000      7.42640        -0.000000      0.000000     -0.021520
      3.63000      2.56680      7.42640        -0.000000      0.000000     -0.021520
    total drift:                                0.000034      0.000000     -0.091751

  FREE ENERGIE OF THE ION-ELECTRON SYSTEM (eV)
  free  energy   TOTEN  =      -106.99954410 eV

  energy  without entropy=     -106.99422693  energy(sigma->0) =     -106.99777171

 d Force = 0.2041139E-02[ 0.412E-03, 0.367E-02]  d Energy = 0.2059204E-02-0.181E-04
 d Force =-0.5160292E+02[-0.515E+02,-0.517E+02]  d Ewald  =-0.5160291E+02-0.130E-04

 stress matrix after NEB project (eV)
    -14.51419      0.00000      0.00000
      0.00000    -13.50964      0.00000
      0.00000      0.00000     -3.53893
  FORCES: max atom, RMS     0.021520    0.008492
  FORCE total and by dimension    0.044933    0.021520
  Stress total and by dimension   20.141895   14.514185
 Conjugate gradient step on ions:
 trial-energy change:   -0.002059  1 .order   -0.002041   -0.003670   -0.000412
  (g-gl).g = 0.124E-02      g.g   = 0.165E-02  gl.gl    = 0.112E-01
 g(Force)  = 0.165E-02   g(Stress)= 0.000E+00 ortho     =-0.205E-04
 gamma     =   0.11105
 trial     =   2.22464
 opt step  =   2.50598  (harmonic =   2.50598) maximal distance =0.00332547
 next E    =  -106.999552   (d E  =  -0.00207)

 reached required accuracy - stopping structural energy minimisation