 vasp.6.3.2 27Jun22 (build Aug 17 2022 15:43:34) complex

 executed on           tv2STDVTST date 2025.01.21  12:35:41

 INCAR:
   ISTART = 0
   ICHARG = 2
   IPIPOL = 3
   IVDW = 11
   IDIPOL = 3
   IVDW = 11
   ISPIN = 2
   ENCUT = 400
   PREC = Normal
   EDIFF = 2E-04
   GGA = PE
   ISMEAR = 1
   SIGMA = 0.2
   LREAL = .FALSE.
   ISYM = 1
   NSW = 800
   IBRION = 2
   POTIM = 0.5
   ISIF = 2
   EDIFFG = -.03
   NPAR = 4
   LWAVE = .FALSE.
   LCHARG = .FALSE.

 POTCAR:    PAW_PBE Cu 22Jun2005
|           W    W    AA    RRRRR   N    N  II  N    N   GGGG   !!!           |
|           W    W   A  A   R    R  NN   N  II  NN   N  G    G  !!!           |
|           W    W  A    A  R    R  N N  N  II  N N  N  G       !!!           |
|           W WW W  AAAAAA  RRRRR   N  N N  II  N  N N  G  GGG   !            |
|           WW  WW  A    A  R   R   N   NN  II  N   NN  G    G                |
|           W    W  A    A  R    R  N    N  II  N    N   GGGG   !!!           |
|     You use a magnetic or noncollinear calculation, but did not specify     |
|     the initial magnetic moment with the MAGMOM tag. Note that a            |
|     default of 1 will be used for all atoms. This ferromagnetic setup       |
|     may break the symmetry of the crystal, in particular it may rule        |
|     out finding an antiferromagnetic solution. Thence, we recommend         |
|     setting the initial magnetic moment manually or verifying carefully     |
|     that this magnetic setup is desired.                                    |

   TITEL  = PAW_PBE Cu 22Jun2005
   POMASS =   63.546; ZVAL   =   11.000    mass and valenz
   ENMAX  =  295.446; ENMIN  =  221.585 eV

  PAW_PBE Cu 22Jun2005                  :

 POSCAR: FCC Cu
  positions in cartesian coordinates
  velocities in cartesian coordinates
 exchange correlation table for  LEXCH =        8
   RHO(1)=    0.500       N(1)  =     2000
   RHO(2)=  100.500       N(2)  =     4000

 VTST: version 4.2, (08/11/21)

 CHAIN: initializing optimizer

 OPT: Using VASP Conjugate-Gradient optimizer
 CHAIN: Read ICHAIN            0

 POSCAR: FCC Cu
  positions in cartesian coordinates
  velocities in cartesian coordinates

 ion  position               nearest neighbor table
   1  0.000  0.000  0.000-   9 2.57  13 2.57  10 2.57  15 2.57   5 2.57   6 2.57   7 2.57   8 2.57

   2  0.000  0.500  0.000-  10 2.57  14 2.57   9 2.57  16 2.57   6 2.57   5 2.57   8 2.57   7 2.57

[...]

   9  0.000  0.250  0.082-  17 2.57  21 2.57  18 2.57  23 2.57   1 2.57   5 2.57   2 2.57   7 2.57
                            13 2.57  14 2.57  15 2.57  16 2.57
  10  0.000  0.750  0.082-  18 2.57  22 2.57  17 2.57  24 2.57   2 2.57   6 2.57   1 2.57   8 2.57
                            14 2.57  13 2.57  16 2.57  15 2.57
  11  0.500  0.250  0.082-  19 2.57  23 2.57  21 2.57  20 2.57   3 2.57   7 2.57   5 2.57   4 2.57
                            15 2.57  13 2.57  16 2.57  14 2.57
  12  0.500  0.750  0.082-  20 2.57  24 2.57  22 2.57  19 2.57   4 2.57   8 2.57   6 2.57   3 2.57
                            16 2.57  14 2.57  15 2.57  13 2.57
  13  0.250  0.000  0.082-  17 2.57  21 2.57  19 2.57  22 2.57   1 2.57   5 2.57   3 2.57   6 2.57
                             9 2.57  11 2.57  10 2.57  12 2.57
  14  0.250  0.500  0.082-  18 2.57  22 2.57  21 2.57  20 2.57   2 2.57   6 2.57   5 2.57   4 2.57
                            10 2.57   9 2.57  12 2.57  11 2.57
  15  0.750  0.000  0.082-  19 2.57  23 2.57  17 2.57  24 2.57   3 2.57   7 2.57   1 2.57   8 2.57
                            11 2.57   9 2.57  12 2.57  10 2.57
  16  0.750  0.500  0.082-  20 2.57  24 2.57  23 2.57  18 2.57   4 2.57   8 2.57   7 2.57   2 2.57
                            12 2.57  11 2.57  10 2.57   9 2.57
  17  0.000  0.000  0.163-   9 2.57  13 2.57  10 2.57  15 2.57  25 2.57  29 2.57  26 2.57  31 2.57
                            21 2.57  22 2.57  23 2.57  24 2.57
  18  0.000  0.500  0.163-  10 2.57  14 2.57   9 2.57  16 2.57  26 2.57  30 2.57  25 2.57  32 2.57
                            22 2.57  21 2.57  24 2.57  23 2.57
  19  0.500  0.000  0.163-  11 2.57  15 2.57  13 2.57  12 2.57  27 2.57  31 2.57  29 2.57  28 2.57
                            23 2.57  21 2.57  24 2.57  22 2.57
  20  0.500  0.500  0.163-  12 2.57  16 2.57  14 2.57  11 2.57  28 2.57  32 2.57  30 2.57  27 2.57
                            24 2.57  23 2.57  22 2.57  21 2.57
  21  0.250  0.250  0.163-   9 2.57  13 2.57  11 2.57  14 2.57  25 2.57  29 2.57  27 2.57  30 2.57
                            17 2.57  18 2.57  19 2.57  20 2.57
  22  0.250  0.750  0.163-  10 2.57  14 2.57  12 2.57  13 2.57  26 2.57  30 2.57  28 2.57  29 2.57
                            18 2.57  20 2.57  17 2.57  19 2.57
  23  0.750  0.250  0.163-  11 2.57  15 2.57  16 2.57   9 2.57  27 2.57  31 2.57  32 2.57  25 2.57
                            19 2.57  20 2.57  17 2.57  18 2.57
  24  0.750  0.750  0.163-  12 2.57  16 2.57  15 2.57  10 2.57  28 2.57  32 2.57  31 2.57  26 2.57
                            20 2.57  19 2.57  18 2.57  17 2.57
  25  0.000  0.250  0.245-  33 2.57  37 2.57  34 2.57  39 2.57  17 2.57  21 2.57  18 2.57  23 2.57
                            29 2.57  30 2.57  31 2.57  32 2.57
  26  0.000  0.750  0.245-  34 2.57  38 2.57  33 2.57  40 2.57  18 2.57  22 2.57  17 2.57  24 2.57
                            30 2.57  29 2.57  32 2.57  31 2.57
  27  0.500  0.250  0.245-  35 2.57  39 2.57  37 2.57  36 2.57  19 2.57  23 2.57  21 2.57  20 2.57
                            31 2.57  29 2.57  32 2.57  30 2.57
  28  0.500  0.750  0.245-  36 2.57  40 2.57  38 2.57  35 2.57  20 2.57  24 2.57  22 2.57  19 2.57
                            32 2.57  30 2.57  31 2.57  29 2.57
  29  0.250  0.000  0.245-  33 2.57  37 2.57  35 2.57  38 2.57  17 2.57  21 2.57  19 2.57  22 2.57
                            25 2.57  27 2.57  26 2.57  28 2.57
  30  0.250  0.500  0.245-  34 2.57  38 2.57  37 2.57  36 2.57  18 2.57  22 2.57  21 2.57  20 2.57
                            26 2.57  25 2.57  28 2.57  27 2.57
  31  0.750  0.000  0.245-  35 2.57  39 2.57  33 2.57  40 2.57  19 2.57  23 2.57  17 2.57  24 2.57
                            27 2.57  25 2.57  28 2.57  26 2.57
  32  0.750  0.500  0.245-  36 2.57  40 2.57  39 2.57  34 2.57  20 2.57  24 2.57  23 2.57  18 2.57
                            28 2.57  27 2.57  26 2.57  25 2.57
  33  0.000  0.000  0.326-  25 2.57  29 2.57  26 2.57  31 2.57  37 2.57  38 2.57  39 2.57  40 2.57

[...]

  40  0.750  0.750  0.326-  28 2.57  32 2.57  31 2.57  26 2.57  36 2.57  35 2.57  34 2.57  33 2.57

  LATTYP: Found a simple tetragonal cell.
 ALAT       =     7.2600002289
 C/A-ratio  =     3.0661156058

  Lattice vectors:

 A1 = (   7.2600002289,   0.0000000000,   0.0000000000)
 A2 = (   0.0000000000,   7.2600002289,   0.0000000000)
 A3 = (   0.0000000000,   0.0000000000,  22.2600000000)

Analysis of symmetry for initial positions (statically):
 Subroutine PRICEL returns following result:

[...]

   8 primitive cells build up your supercell.

 Routine SETGRP: Setting up the symmetry group for a
 simple tetragonal supercell.

 Subroutine GETGRP returns: Found 16 space group operations
 (whereof  8 operations were pure point group operations)
 out of a pool of 16 trial point group operations.

The static configuration has the point symmetry C_4v.
 The point group associated with its full space group is D_4h.

Analysis of symmetry for dynamics (positions and initial velocities):
 Subroutine PRICEL returns following result:

[...]

The dynamic configuration has the point symmetry C_4v.
 The point group associated with its full space group is D_4h.

Analysis of constrained symmetry for selective dynamics:
 Subroutine PRICEL returns following result:

[...]

The constrained configuration has the point symmetry C_4v.

Analysis of structural, dynamic, and magnetic symmetry:
 Subroutine PRICEL returns following result:

  LATTYP: Found a simple tetragonal cell.
 ALAT       =     2.5667976963
 C/A-ratio  =     8.6722845482

  Lattice vectors:

 A1 = (   1.8150000570,  -1.8150000570,   0.0000000000)
 A2 = (   1.8150000570,   1.8150000570,   0.0000000000)
 A3 = (   0.0000000000,   0.0000000000,  22.2600000000)

   8 primitive cells build up your supercell.

 Routine SETGRP: Setting up the symmetry group for a
 simple tetragonal supercell.

 Subroutine GETGRP returns: Found  8 space group operations
 (whereof  8 operations were pure point group operations)
 out of a pool of 16 trial point group operations.

The overall configuration has the point symmetry C_4v.

 Subroutine INISYM returns: Found  8 space group operations
 (whereof  8 operations are pure point group operations),
 and found     8 'primitive' translations

                                     Primitive cell

  volume of cell :     146.6589

  direct lattice vectors                    reciprocal lattice vectors
     1.815000057 -1.815000057  0.000000000     0.275482085 -0.275482085  0.000000000
     1.815000057  1.815000057  0.000000000     0.275482085  0.275482085  0.000000000
     0.000000000  0.000000000 22.260000000     0.000000000  0.000000000  0.044923630

  length of vectors
     2.566797696  2.566797696 22.260000000     0.389590501  0.389590501  0.044923630

  position of ions in fractional coordinates (direct lattice)
     0.000000000  0.000000000  0.000000000
     0.500000000  0.500000000  0.081536389
     0.000000000  0.000000000  0.163072779
     0.500000000  0.500000000  0.244609168
     0.000000000  0.000000000  0.326145557

  ion indices of the primitive-cell ions
   primitive index   ion index
                 1           1
                 2           9
                 3          17
                 4          25
                 5          33

 KPOINTS: Auto-mesh

Automatic generation of k-mesh.
 Grid dimensions read from file:
 generate k-points for:    3    3    1

 Generating k-lattice:

  Cartesian coordinates                     Fractional coordinates (reciprocal lattice)
     0.045913681  0.000000000  0.000000000     0.333333333  0.000000000  0.000000000
     0.000000000  0.045913681  0.000000000     0.000000000  0.333333333  0.000000000
     0.000000000  0.000000000  0.044923630     0.000000000  0.000000000  1.000000000

  Length of vectors
     0.045913681  0.045913681  0.044923630

  Shift w.r.t. Gamma in fractional coordinates (k-lattice)
     0.000000000  0.000000000  0.000000000

 Subroutine IBZKPT returns following result:

 Found      3 irreducible k-points:

 Following reciprocal coordinates:
            Coordinates               Weight
  0.000000  0.000000  0.000000      1.000000
  0.333333  0.000000  0.000000      4.000000
  0.333333  0.333333  0.000000      4.000000

 Following cartesian coordinates:
            Coordinates               Weight
  0.000000  0.000000  0.000000      1.000000
  0.045914  0.000000  0.000000      4.000000
  0.045914  0.045914  0.000000      4.000000

 SYSTEM =  unknown system
 POSCAR =  FCC Cu

 Startparameter for this run:
   NWRITE =      2    write-flag & timer
   PREC   = normal    normal or accurate (medium, high low for compatibility)
   ISTART =      0    job   : 0-new  1-cont  2-samecut
   ICHARG =      2    charge: 1-file 2-atom 10-const
[...]
     34      -3.7456      1.00000
     35      -3.7104      1.00000
     36      -3.7017      1.00000
     37      -3.7017      1.00000
     38      -3.6827      1.00000
     39      -3.6758      1.00000
     40      -3.6758      1.00000
     41      -3.5942      1.00000
     42      -3.5914      1.00000
     43      -3.5692      1.00000
     44      -3.5692      1.00000
     45      -3.4657      1.00000
     46      -3.4657      1.00000
     47      -3.4478      1.00000
     48      -3.4131      1.00000
     49      -3.3585      1.00000
     50      -3.2994      1.00000
     51      -3.2755      1.00000
     52      -3.2755      1.00000
     53      -3.1909      1.00000
     54      -3.1909      1.00000
     55      -3.1574      1.00000
     56      -3.1376      1.00000
     57      -3.1376      1.00000
     58      -3.0865      1.00000
     59      -3.0750      1.00000
     60      -3.0703      1.00000
[...]
    270       7.1313      0.00000
    271       7.4491      0.00000
    272       7.4491      0.00000
    273       7.6498      0.00000
    274       7.6498      0.00000
    275       7.7317      0.00000
    276       7.8843      0.00000
    277       7.8843      0.00000
    278       8.0943      0.00000
    279       8.2176      0.00000
    280       8.3391      0.00000
    281       8.5650      0.00000
    282       8.5650      0.00000
    283       8.6047      0.00000
    284       8.9916      0.00000
 Fermi energy:         0.3382310962

 spin component 2

[...]

 k-point     3 :       0.3333    0.3333    0.0000
  band No.  band energies     occupation
      1      -7.9486      1.00000
      2      -7.0249      1.00000
      3      -7.0249      1.00000
      4      -6.7766      1.00000
      5      -6.1970      1.00000
      6      -5.9493      1.00000
      7      -5.9493      1.00000
      8      -5.3375      1.00000
      9      -5.1857      1.00000
     10      -4.6155      1.00000
     11      -4.6155      1.00000
     12      -4.5061      1.00000
     13      -4.5061      1.00000
     14      -4.4532      1.00000
     15      -4.2900      1.00000
     16      -4.2508      1.00000
     17      -4.2287      1.00000
     18      -4.1451      1.00000
     19      -4.1043      1.00000
     20      -4.0926      1.00000
     21      -4.0365      1.00000
     22      -4.0252      1.00000
     23      -4.0252      1.00000
     24      -3.8559      1.00000
     25      -3.8455      1.00000
     26      -3.8455      1.00000
     27      -3.8205      1.00000
     28      -3.8192      1.00000
     29      -3.7955      1.00000
     30      -3.7938      1.00000
     31      -3.7700      1.00000
     32      -3.7700      1.00000
     33      -3.7456      1.00000
     34      -3.7456      1.00000
     35      -3.7104      1.00000
     36      -3.7017      1.00000
     37      -3.7017      1.00000
     38      -3.6827      1.00000
     39      -3.6758      1.00000
     40      -3.6758      1.00000
     41      -3.5942      1.00000
     42      -3.5914      1.00000
     43      -3.5692      1.00000
     44      -3.5692      1.00000
     45      -3.4657      1.00000
     46      -3.4657      1.00000
     47      -3.4478      1.00000
     48      -3.4131      1.00000
     49      -3.3585      1.00000
     50      -3.2994      1.00000
     51      -3.2755      1.00000
     52      -3.2755      1.00000
     53      -3.1909      1.00000
     54      -3.1909      1.00000
     55      -3.1574      1.00000
     56      -3.1376      1.00000
     57      -3.1376      1.00000
     58      -3.0865      1.00000
     59      -3.0750      1.00000
     60      -3.0703      1.00000
[...]
    270       7.1314      0.00000
    271       7.4493      0.00000
    272       7.4493      0.00000
    273       7.6498      0.00000
    274       7.6498      0.00000
    275       7.7317      0.00000
    276       7.8843      0.00000
    277       7.8843      0.00000
    278       8.0943      0.00000
    279       8.2177      0.00000
    280       8.3393      0.00000
    281       8.5650      0.00000
    282       8.5650      0.00000
    283       8.6047      0.00000
    284       8.9915      0.00000

[...]

 soft charge-density along one line, spin component           2
         0         1         2         3         4         5         6         7         8         9
 total charge-density along one line

------------------------ aborting loop because EDIFF is reached ----------------------------------------

 DIPCOR: dipole corrections for dipol
 direction  3 min pos   151,
 dipolmoment           0.000000      0.000000     -0.011368 electrons x Angstroem
 Tr[quadrupol]     -4343.297397

 energy correction for charged system         0.000000 eV
 dipol+quadrupol energy correction            0.000010 eV
 added-field ion interaction          0.000000 eV  (added to PSCEN)

  *************** adding dipol energy to TOTEN NOW ****************

         DFTD3 V3.0 Rev 1
 Edisp (eV)  -14.48080

 E6    (eV) :    -5.7213
 E8    (eV) :    -8.7595
 % E8        : 60.49

  FORCE on cell =-STRESS in cart. coord.  units (eV):
  Direction    XX          YY          ZZ          XY          YZ          ZX
  Alpha Z   997.31828   997.31828   997.31828
  Ewald  212895.03335212895.03335************    -0.00000     0.00000     0.00000
  Hartree227756.11490227756.11490************    -0.00000    -0.00000    -0.00000
  E(xc)   -2569.36155 -2569.36155 -2573.31827     0.00000     0.00000     0.00000
  Local  ************************455268.66381    -0.00000    -0.00000    -0.00000
  n-local  -882.25228  -869.76559  -877.61809     6.85749    -0.00000     0.00001
  augment  3779.74147  3779.74147  3794.36988     0.00000    -0.00000     0.00000
  Kinetic  3577.53117  3588.03827  3605.88821     4.75996     0.00000    -0.00000
  Fock        0.00000     0.00000     0.00000     0.00000     0.00000     0.00000
  vdW       -17.42201   -17.42201   -11.61122    -0.00000     0.00000     0.00000
  Total     -27.99081   -27.99081    -7.67190     0.00000    -0.00000     0.00000
  in kB     -38.22325   -38.22325   -10.47647     0.00000    -0.00000     0.00000

 VOLUME and BASIS-vectors are now :
  energy-cutoff  :      400.00
  volume of cell :     1173.27
      direct lattice vectors                 reciprocal lattice vectors
     7.260000229  0.000000000  0.000000000     0.137741042  0.000000000  0.000000000
     0.000000000  7.260000229  0.000000000     0.000000000  0.137741042  0.000000000
     0.000000000  0.000000000 22.260000000     0.000000000  0.000000000  0.044923630

  length of vectors
     7.260000229  7.260000229 22.260000000     0.137741042  0.137741042  0.044923630

 FORCES acting on ions
    electron-ion (+dipol)            ewald-force                    non-local-force                 convergence-correction
   -.152E-12 -.935E-13 0.391E+04   -.355E-06 -.355E-06 -.391E+04   0.000E+00 0.132E-22 -.346E+01   0.714E-10 0.713E-10 0.446E-01
   -.150E-12 0.174E-05 0.391E+04   -.355E-06 0.148E-06 -.391E+04   0.000E+00 0.662E-22 -.346E+01   0.716E-10 -.121E-09 0.446E-01
   0.174E-05 0.513E-12 0.391E+04   0.148E-06 -.355E-06 -.391E+04   -.165E-22 0.132E-22 -.346E+01   -.121E-09 0.712E-10 0.446E-01
   0.174E-05 0.174E-05 0.391E+04   0.148E-06 0.148E-06 -.391E+04   0.000E+00 -.265E-22 -.346E+01   -.121E-09 -.121E-09 0.446E-01
   0.871E-06 0.871E-06 0.391E+04   -.148E-06 -.148E-06 -.391E+04   -.132E-22 0.106E-21 -.346E+01   0.344E-10 0.350E-10 0.446E-01
   0.871E-06 0.261E-05 0.391E+04   -.148E-06 0.355E-06 -.391E+04   0.529E-22 -.993E-23 -.346E+01   0.345E-10 -.158E-09 0.446E-01
   0.261E-05 0.871E-06 0.391E+04   0.355E-06 -.148E-06 -.391E+04   0.000E+00 0.993E-23 -.346E+01   -.157E-09 0.346E-10 0.446E-01
   0.261E-05 0.261E-05 0.391E+04   0.355E-06 0.355E-06 -.391E+04   -.265E-22 -.265E-22 -.346E+01   -.157E-09 -.157E-09 0.446E-01
   -.131E-12 0.849E-06 0.200E+04   -.475E-06 -.193E-06 -.200E+04   0.265E-22 -.199E-22 -.820E+00   0.259E-09 0.126E-09 0.173E+00
   -.136E-12 0.255E-05 0.200E+04   -.475E-06 0.475E-06 -.200E+04   0.132E-22 0.000E+00 -.820E+00   0.259E-09 -.340E-09 0.173E+00
   0.170E-05 0.849E-06 0.200E+04   0.193E-06 -.193E-06 -.200E+04   0.265E-22 0.199E-22 -.820E+00   -.208E-09 0.126E-09 0.173E+00
   0.170E-05 0.255E-05 0.200E+04   0.193E-06 0.475E-06 -.200E+04   0.132E-22 -.199E-22 -.820E+00   -.208E-09 -.340E-09 0.173E+00
   0.849E-06 -.481E-12 0.200E+04   -.193E-06 -.475E-06 -.200E+04   0.199E-22 -.265E-22 -.820E+00   0.125E-09 0.258E-09 0.173E+00
   0.849E-06 0.170E-05 0.200E+04   -.193E-06 0.193E-06 -.200E+04   -.132E-22 0.662E-23 -.820E+00   0.126E-09 -.207E-09 0.173E+00
   0.255E-05 -.124E-11 0.200E+04   0.475E-06 -.475E-06 -.200E+04   0.662E-23 0.993E-23 -.820E+00   -.339E-09 0.258E-09 0.173E+00
   0.255E-05 0.170E-05 0.200E+04   0.475E-06 0.193E-06 -.200E+04   -.662E-23 -.529E-22 -.820E+00   -.339E-09 -.207E-09 0.173E+00
   -.977E-13 -.656E-13 0.103E+02   -.492E-06 -.492E-06 -.106E+02   0.000E+00 0.132E-22 0.128E-01   0.376E-09 0.374E-09 0.267E+00
   -.982E-13 0.169E-05 0.103E+02   -.492E-06 0.204E-06 -.106E+02   0.529E-22 0.265E-22 0.128E-01   0.375E-09 -.184E-10 0.267E+00
   0.169E-05 -.709E-13 0.103E+02   0.204E-06 -.492E-06 -.106E+02   -.265E-22 0.000E+00 0.128E-01   -.200E-10 0.373E-09 0.267E+00
   0.169E-05 0.169E-05 0.103E+02   0.204E-06 0.204E-06 -.106E+02   -.119E-21 0.265E-22 0.128E-01   -.197E-10 -.180E-10 0.267E+00
   0.847E-06 0.847E-06 0.103E+02   -.204E-06 -.204E-06 -.106E+02   -.106E-21 0.265E-22 0.128E-01   0.235E-09 0.236E-09 0.267E+00
   0.847E-06 0.254E-05 0.103E+02   -.204E-06 0.492E-06 -.106E+02   0.132E-22 -.662E-23 0.128E-01   0.236E-09 -.157E-09 0.267E+00
   0.254E-05 0.847E-06 0.103E+02   0.492E-06 -.204E-06 -.106E+02   0.794E-22 0.265E-22 0.128E-01   -.156E-09 0.237E-09 0.267E+00
   0.254E-05 0.254E-05 0.103E+02   0.492E-06 0.492E-06 -.106E+02   0.000E+00 -.132E-22 0.128E-01   -.157E-09 -.157E-09 0.267E+00
   -.118E-12 0.846E-06 -.199E+04   -.485E-06 -.194E-06 0.199E+04   0.000E+00 -.596E-22 0.321E+00   -.689E-10 0.392E-10 0.285E+00
   -.120E-12 0.254E-05 -.199E+04   -.485E-06 0.485E-06 0.199E+04   0.000E+00 0.728E-22 0.321E+00   -.691E-10 0.299E-09 0.285E+00
   0.169E-05 0.846E-06 -.199E+04   0.194E-06 -.194E-06 0.199E+04   -.529E-22 0.629E-22 0.321E+00   0.189E-09 0.388E-10 0.285E+00
   0.169E-05 0.254E-05 -.199E+04   0.194E-06 0.485E-06 0.199E+04   -.529E-22 -.397E-22 0.321E+00   0.189E-09 0.299E-09 0.285E+00
   0.846E-06 0.338E-12 -.199E+04   -.194E-06 -.485E-06 0.199E+04   -.106E-21 0.157E-22 0.321E+00   0.387E-10 -.702E-10 0.285E+00
   0.846E-06 0.169E-05 -.199E+04   -.194E-06 0.194E-06 0.199E+04   0.000E+00 0.132E-22 0.321E+00   0.384E-10 0.190E-09 0.285E+00
   0.254E-05 -.145E-11 -.199E+04   0.485E-06 -.485E-06 0.199E+04   0.000E+00 0.662E-22 0.321E+00   0.299E-09 -.706E-10 0.285E+00
   0.254E-05 0.169E-05 -.199E+04   0.485E-06 0.194E-06 0.199E+04   -.529E-22 0.132E-22 0.321E+00   0.299E-09 0.191E-09 0.285E+00
   -.143E-12 -.121E-11 -.393E+04   -.368E-06 -.368E-06 0.393E+04   -.265E-22 0.000E+00 0.357E+01   -.414E-09 -.414E-09 0.105E+00
   -.146E-12 0.173E-05 -.393E+04   -.368E-06 0.151E-06 0.393E+04   0.794E-22 -.265E-22 0.357E+01   -.414E-09 0.161E-09 0.105E+00
   0.173E-05 -.102E-11 -.393E+04   0.151E-06 -.368E-06 0.393E+04   -.529E-22 0.265E-22 0.357E+01   0.161E-09 -.414E-09 0.105E+00
   0.173E-05 0.173E-05 -.393E+04   0.151E-06 0.151E-06 0.393E+04   0.265E-22 -.199E-22 0.357E+01   0.161E-09 0.161E-09 0.105E+00
   0.867E-06 0.867E-06 -.393E+04   -.150E-06 -.150E-06 0.393E+04   0.265E-22 -.662E-23 0.357E+01   -.200E-09 -.200E-09 0.105E+00
   0.867E-06 0.260E-05 -.393E+04   -.150E-06 0.368E-06 0.393E+04   0.265E-22 -.132E-22 0.357E+01   -.200E-09 0.375E-09 0.105E+00
   0.260E-05 0.867E-06 -.393E+04   0.368E-06 -.150E-06 0.393E+04   0.794E-22 0.529E-22 0.357E+01   0.375E-09 -.200E-09 0.105E+00
   0.260E-05 0.260E-05 -.393E+04   0.368E-06 0.368E-06 0.393E+04   0.662E-22 -.529E-22 0.357E+01   0.375E-09 0.375E-09 0.105E+00
   0.514E-04 0.514E-04 -.414E+01   0.267E-13 0.350E-13 0.500E-11   -.629E-22 0.267E-21 -.295E+01   0.960E-09 0.962E-09 0.700E+01

 POSITION                                       TOTAL-FORCE (eV/Angst)
      0.00000      0.00000      0.00000         0.000000     -0.000000      0.276517
      0.00000      3.63000      0.00000        -0.000000     -0.000000      0.276517
      3.63000      0.00000      0.00000        -0.000000     -0.000000      0.276517
      3.63000      3.63000      0.00000        -0.000000     -0.000000      0.276517
      1.81500      1.81500      0.00000         0.000000     -0.000000      0.276517
      1.81500      5.44500      0.00000        -0.000000      0.000000      0.276517
      5.44500      1.81500      0.00000        -0.000000     -0.000000      0.276517
      5.44500      5.44500      0.00000         0.000000      0.000000      0.276517
      0.00000      1.81500      1.81500         0.000000     -0.000000     -0.288194
      0.00000      5.44500      1.81500        -0.000000      0.000000     -0.288194
      3.63000      1.81500      1.81500        -0.000000      0.000000     -0.288194
      3.63000      5.44500      1.81500         0.000000     -0.000000     -0.288194
      1.81500      0.00000      1.81500         0.000000      0.000000     -0.288194
      1.81500      3.63000      1.81500        -0.000000      0.000000     -0.288194
      5.44500      0.00000      1.81500        -0.000000     -0.000000     -0.288194
      5.44500      3.63000      1.81500        -0.000000     -0.000000     -0.288194
     -0.00000      0.00000      3.59349         0.000000     -0.000000     -0.008208
     -0.00000      3.63000      3.59349         0.000000      0.000000     -0.008208
      3.63000      0.00000      3.59349        -0.000000     -0.000000     -0.008208
      3.63000      3.63000      3.59349         0.000000     -0.000000     -0.008208
      1.81500      1.81500      3.59349         0.000000      0.000000     -0.008208
      1.81500      5.44500      3.59349         0.000000      0.000000     -0.008208
      5.44500      1.81500      3.59349        -0.000000      0.000000     -0.008208
      5.44500      5.44500      3.59349        -0.000000     -0.000000     -0.008208
     -0.00000      1.81500      5.37676         0.000000     -0.000000      0.008239
      0.00000      5.44500      5.37676         0.000000      0.000000      0.008239
      3.63000      1.81500      5.37676        -0.000000      0.000000      0.008239
      3.63000      5.44500      5.37676         0.000000     -0.000000      0.008239
      1.81500     -0.00000      5.37676         0.000000      0.000000      0.008239
      1.81500      3.63000      5.37676         0.000000      0.000000      0.008239
      5.44500      0.00000      5.37676         0.000000      0.000000      0.008239
      5.44500      3.63000      5.37676        -0.000000     -0.000000      0.008239
     -0.00000      0.00000      7.11783         0.000000     -0.000000      0.011646
      0.00000      3.63000      7.11783        -0.000000      0.000000      0.011646
      3.63000      0.00000      7.11783         0.000000     -0.000000      0.011646
      3.63000      3.63000      7.11783         0.000000      0.000000      0.011646
      1.81500      1.81500      7.11783        -0.000000     -0.000000      0.011646
      1.81500      5.44500      7.11783        -0.000000     -0.000000      0.011646
      5.44500      1.81500      7.11783         0.000000      0.000000      0.011646
      5.44500      5.44500      7.11783         0.000000     -0.000000      0.011646
    total drift:                                0.000051      0.000051     -0.087144

  FREE ENERGIE OF THE ION-ELECTRON SYSTEM (eV)
  free  energy   TOTEN  =      -153.88767947 eV

  energy  without entropy=     -153.80182968  energy(sigma->0) =     -153.85906287

 d Force = 0.6187594E-02[-0.140E-02, 0.138E-01]  d Energy = 0.7860376E-02-0.167E-02
 d Force =-0.5461613E+03[-0.547E+03,-0.546E+03]  d Ewald  =-0.5461611E+03-0.198E-03

 stress matrix after NEB project (eV)
    -27.99081      0.00000      0.00000
      0.00000    -27.99081     -0.00000
      0.00000     -0.00000     -7.67190
  FORCES: max atom, RMS     0.011646    0.007360
  FORCE total and by dimension    0.046552    0.011646
  Stress total and by dimension   40.321568   27.990809
 Conjugate gradient step on ions:
 trial-energy change:   -0.007860  1 .order   -0.006188   -0.013772    0.001397
  (g-gl).g = 0.566E-02      g.g   = 0.583E-02  gl.gl    = 0.559E-02
 g(Force)  = 0.583E-02   g(Stress)= 0.000E+00 ortho     = 0.140E-03
 gamma     =   1.01150
 trial     =   2.30421
 opt step  =   2.17359  (harmonic =   2.09206) maximal distance =0.00000000
 next E    =  -153.887719   (d E  =  -0.00790)

 reached required accuracy - stopping structural energy minimisation