 vasp.6.3.2 27Jun22 (build Aug 17 2022 15:43:34) complex

 executed on           tv2STDVTST date 2025.01.21  12:30:36

 INCAR:
   ISTART = 0
   ICHARG = 2
   IPIPOL = 3
   IVDW = 11
   IDIPOL = 3
   IVDW = 11
   ISPIN = 2
   ENCUT = 400
   PREC = Normal
   EDIFF = 2E-04
   GGA = PE
   ISMEAR = 1
   SIGMA = 0.2
   LREAL = .FALSE.
   ISYM = 1
   NSW = 800
   IBRION = 2
   POTIM = 0.5
   ISIF = 2
   EDIFFG = -.03
   NPAR = 4
   LWAVE = .FALSE.
   LCHARG = .FALSE.

 POTCAR:    PAW_PBE Cu 22Jun2005
|           W    W    AA    RRRRR   N    N  II  N    N   GGGG   !!!           |
|           W    W   A  A   R    R  NN   N  II  NN   N  G    G  !!!           |
|           W    W  A    A  R    R  N N  N  II  N N  N  G       !!!           |
|           W WW W  AAAAAA  RRRRR   N  N N  II  N  N N  G  GGG   !            |
|           WW  WW  A    A  R   R   N   NN  II  N   NN  G    G                |
|           W    W  A    A  R    R  N    N  II  N    N   GGGG   !!!           |
|     You use a magnetic or noncollinear calculation, but did not specify     |
|     the initial magnetic moment with the MAGMOM tag. Note that a            |
|     default of 1 will be used for all atoms. This ferromagnetic setup       |
|     may break the symmetry of the crystal, in particular it may rule        |
|     out finding an antiferromagnetic solution. Thence, we recommend         |
|     setting the initial magnetic moment manually or verifying carefully     |
|     that this magnetic setup is desired.                                    |

   TITEL  = PAW_PBE Cu 22Jun2005
   POMASS =   63.546; ZVAL   =   11.000    mass and valenz
   ENMAX  =  295.446; ENMIN  =  221.585 eV

  PAW_PBE Cu 22Jun2005                  :

 POSCAR: FCC Cu
  positions in cartesian coordinates
  velocities in cartesian coordinates
 exchange correlation table for  LEXCH =        8
   RHO(1)=    0.500       N(1)  =     2000
   RHO(2)=  100.500       N(2)  =     4000

 VTST: version 4.2, (08/11/21)

 CHAIN: initializing optimizer

 OPT: Using VASP Conjugate-Gradient optimizer
 CHAIN: Read ICHAIN            0

 POSCAR: FCC Cu
  positions in cartesian coordinates
  velocities in cartesian coordinates

 ion  position               nearest neighbor table
   1  0.000  0.000  0.000-   3 2.57   4 2.57   3 2.57   4 2.57   2 2.57   2 2.57   2 2.57   2 2.57

   2  0.500  0.500  0.000-   3 2.57   4 2.57   3 2.57   4 2.57   1 2.57   1 2.57   1 2.57   1 2.57

   3  0.000  0.500  0.075-   5 2.57   6 2.57   5 2.57   6 2.57   2 2.57   1 2.57   2 2.57   1 2.57
                             4 2.57   4 2.57   4 2.57   4 2.57
   4  0.500  0.000  0.075-   5 2.57   6 2.57   5 2.57   6 2.57   2 2.57   1 2.57   2 2.57   1 2.57
                             3 2.57   3 2.57   3 2.57   3 2.57
   5  0.000  0.000  0.151-   3 2.57   4 2.57   3 2.57   4 2.57   7 2.57   8 2.57   7 2.57   8 2.57
                             6 2.57   6 2.57   6 2.57   6 2.57
   6  0.500  0.500  0.151-   3 2.57   4 2.57   3 2.57   4 2.57   7 2.57   8 2.57   7 2.57   8 2.57
                             5 2.57   5 2.57   5 2.57   5 2.57
   7  0.000  0.500  0.226-   9 2.57  10 2.57   9 2.57  10 2.57   6 2.57   5 2.57   6 2.57   5 2.57
                             8 2.57   8 2.57   8 2.57   8 2.57
   8  0.500  0.000  0.226-   9 2.57  10 2.57   9 2.57  10 2.57   6 2.57   5 2.57   6 2.57   5 2.57
                             7 2.57   7 2.57   7 2.57   7 2.57
   9  0.000  0.000  0.302-   7 2.57   8 2.57  11 2.57  12 2.57   7 2.57   8 2.57  11 2.57  12 2.57
                            10 2.57  10 2.57  10 2.57  10 2.57
  10  0.500  0.500  0.302-   7 2.57   8 2.57  11 2.57  12 2.57   7 2.57   8 2.57  11 2.57  12 2.57
                             9 2.57   9 2.57   9 2.57   9 2.57
  11  0.000  0.500  0.377-   9 2.57  10 2.57   9 2.57  10 2.57  12 2.57  12 2.57  12 2.57  12 2.57

  12  0.500  0.000  0.377-   9 2.57  10 2.57   9 2.57  10 2.57  11 2.57  11 2.57  11 2.57  11 2.57

  LATTYP: Found a simple tetragonal cell.
 ALAT       =     3.6300001144
 C/A-ratio  =     6.6322311959

  Lattice vectors:

 A1 = (   3.6300001144,   0.0000000000,   0.0000000000)
 A2 = (   0.0000000000,   3.6300001144,   0.0000000000)
 A3 = (   0.0000000000,   0.0000000000,  24.0750000000)

Analysis of symmetry for initial positions (statically):
 Subroutine PRICEL returns following result:

[...]

   2 primitive cells build up your supercell.

 Routine SETGRP: Setting up the symmetry group for a
 simple tetragonal supercell.

 Subroutine GETGRP returns: Found 16 space group operations
 (whereof  8 operations were pure point group operations)
 out of a pool of 16 trial point group operations.

The static configuration has the point symmetry C_4v.
 The point group associated with its full space group is D_4h.

Analysis of symmetry for dynamics (positions and initial velocities):
 Subroutine PRICEL returns following result:

[...]

The dynamic configuration has the point symmetry C_4v.
 The point group associated with its full space group is D_4h.

Analysis of constrained symmetry for selective dynamics:
 Subroutine PRICEL returns following result:

[...]

The constrained configuration has the point symmetry C_4v.

Analysis of structural, dynamic, and magnetic symmetry:
 Subroutine PRICEL returns following result:

  LATTYP: Found a simple tetragonal cell.
 ALAT       =     2.5667976966
 C/A-ratio  =     9.3793913061

  Lattice vectors:

 A1 = (   1.8150000570,  -1.8150000574,   0.0000000000)
 A2 = (   1.8150000570,   1.8150000570,   0.0000000000)
 A3 = (   0.0000000000,   0.0000000000,  24.0750000000)

   2 primitive cells build up your supercell.

 Routine SETGRP: Setting up the symmetry group for a
 simple tetragonal supercell.

 Subroutine GETGRP returns: Found  8 space group operations
 (whereof  8 operations were pure point group operations)
 out of a pool of 16 trial point group operations.

The overall configuration has the point symmetry C_4v.

 Subroutine INISYM returns: Found  8 space group operations
 (whereof  8 operations are pure point group operations),
 and found     2 'primitive' translations

                                     Primitive cell

  volume of cell :     158.6169

  direct lattice vectors                    reciprocal lattice vectors
     1.815000057 -1.815000057  0.000000000     0.275482085 -0.275482085  0.000000000
     1.815000057  1.815000057  0.000000000     0.275482085  0.275482085  0.000000000
     0.000000000  0.000000000 24.075000000     0.000000000  0.000000000  0.041536864

  length of vectors
     2.566797697  2.566797696 24.075000000     0.389590501  0.389590501  0.041536864

  position of ions in fractional coordinates (direct lattice)
     0.000000000  0.000000000  0.000000000
     0.500000000  0.500000000  0.075389409
     0.000000000  0.000000000  0.150778818
     0.500000000  0.500000000  0.226168228
     0.000000000  0.000000000  0.301557637
     0.500000000  0.500000000  0.376947046

  ion indices of the primitive-cell ions
   primitive index   ion index
                 1           1
                 2           3
                 3           5
                 4           7
                 5           9
                 6          11

 KPOINTS: Auto-mesh

Automatic generation of k-mesh.
 Grid dimensions read from file:
 generate k-points for:    3    3    1

 Generating k-lattice:

  Cartesian coordinates                     Fractional coordinates (reciprocal lattice)
     0.091827362  0.000000000  0.000000000     0.333333333  0.000000000  0.000000000
     0.000000000  0.091827362  0.000000000     0.000000000  0.333333333  0.000000000
     0.000000000  0.000000000  0.041536864     0.000000000  0.000000000  1.000000000

  Length of vectors
     0.091827362  0.091827362  0.041536864

  Shift w.r.t. Gamma in fractional coordinates (k-lattice)
     0.000000000  0.000000000  0.000000000

 Subroutine IBZKPT returns following result:

 Found      3 irreducible k-points:

 Following reciprocal coordinates:
            Coordinates               Weight
  0.000000  0.000000  0.000000      1.000000
  0.333333  0.000000  0.000000      4.000000
  0.333333  0.333333  0.000000      4.000000

 Following cartesian coordinates:
            Coordinates               Weight
  0.000000  0.000000  0.000000      1.000000
  0.091827  0.000000  0.000000      4.000000
  0.091827  0.091827  0.000000      4.000000

 SYSTEM =  unknown system
 POSCAR =  FCC Cu

 Startparameter for this run:
   NWRITE =      2    write-flag & timer
   PREC   = normal    normal or accurate (medium, high low for compatibility)
   ISTART =      0    job   : 0-new  1-cont  2-samecut
   ICHARG =      2    charge: 1-file 2-atom 10-const
   ISPIN  =      2    spin polarized calculation?
   LNONCOLLINEAR =      F non collinear calculations
   LSORBIT =      F    spin-orbit coupling
   INIWAV =      1    electr: 0-lowe 1-rand  2-diag
   LASPH  =      F    aspherical Exc in radial PAW
 Electronic Relaxation 1
   ENCUT  =  400.0 eV  29.40 Ry    5.42 a.u.   5.92  5.92 39.26*2*pi/ulx,y,z
   ENINI  =  400.0     initial cutoff
   ENAUG  =  587.0 eV  augmentation charge cutoff
   NELM   =     60;   NELMIN=  2; NELMDL= -5     # of ELM steps
   EDIFF  = 0.2E-03   stopping-criterion for ELM
   LREAL  =      F    real-space projection
   NLSPLINE    = F    spline interpolate recip. space projectors
   LCOMPAT=      F    compatible to vasp.4.4
   GGA_COMPAT  = T    GGA compatible to vasp.4.4-vasp.4.6
   LMAXPAW     = -100 max onsite density
   LMAXMIX     =    2 max onsite mixed and CHGCAR
   VOSKOWN=      0    Vosko Wilk Nusair interpolation
   ROPT   =    0.00000
 Ionic relaxation
   EDIFFG = -.3E-01   stopping-criterion for IOM
   NSW    =    800    number of steps for IOM
   NBLOCK =      1;   KBLOCK =    800    inner block; outer block
   IBRION =      2    ionic relax: 0-MD 1-quasi-New 2-CG
   NFREE  =      1    steps in history (QN), initial steepest desc. (CG)
   ISIF   =      2    stress and relaxation
   IWAVPR =     11    prediction:  0-non 1-charg 2-wave 3-comb
   ISYM   =      1    0-nonsym 1-usesym 2-fastsym
   LCORR  =      T    Harris-Foulkes like correction to forces

   POTIM  = 0.5000    time-step for ionic-motion
   TEIN   =    0.0    initial temperature
   TEBEG  =    0.0;   TEEND  =   0.0 temperature during run
   SMASS  =  -3.00    Nose mass-parameter (am)
   estimated Nose-frequenzy (Omega)   =  0.10E-29 period in steps = 0.13E+47 mass=  -0.301E-27a.u.
   SCALEE = 1.0000    scale energy and forces
   NPACO  =    256;   APACO  = 10.0  distance and # of slots for P.C.
   PSTRESS=    0.0 pullay stress

  Mass of Ions in am
   POMASS =  63.55
  Ionic Valenz
   ZVAL   =  11.00
  Atomic Wigner-Seitz radii
  virtual crystal weights
   VCA    =   1.00
   NELECT =     132.0000    total number of electrons
   NUPDOWN=      -1.0000    fix difference up-down

 DOS related values:
   EMIN   =  10.00;   EMAX   =-10.00  energy-range for DOS
   EFERMI =   0.00
   ISMEAR =     1;   SIGMA  =   0.20  broadening in eV -4-tet -1-fermi 0-gaus

 Electronic relaxation 2 (details)
   IALGO  =     38    algorithm
   LDIAG  =      T    sub-space diagonalisation (order eigenvalues)
   LSUBROT=      F    optimize rotation matrix (better conditioning)
[...]
  FORCE total and by dimension    0.168502    0.117310
  Stress total and by dimension    2.478203    1.794589
 Conjugate gradient step on ions:
 trial-energy change:   -0.006613  1 .order   -0.006034   -0.008706   -0.003362
  (g-gl).g = 0.621E-02      g.g   = 0.591E-02  gl.gl    = 0.199E-01
 g(Force)  = 0.591E-02   g(Stress)= 0.000E+00 ortho     = 0.324E-03
 gamma     =   0.31174
 trial     =   1.44861
 opt step  =   2.35993  (harmonic =   2.35993) maximal distance =0.00349166
 next E    =   -46.438367   (d E  =  -0.00709)

[...]

 d Force = 0.9166277E-03[-0.282E-03, 0.212E-02]  d Energy = 0.9896971E-03-0.731E-04
 d Force =-0.5499869E+02[-0.551E+02,-0.549E+02]  d Ewald  =-0.5499865E+02-0.402E-04

[...]

 d Force = 0.1830116E-04[ 0.348E-05, 0.331E-04]  d Energy =-0.3656471E-04 0.549E-04
 d Force = 0.6471351E+01[ 0.647E+01, 0.647E+01]  d Ewald  = 0.6471351E+01 0.629E-07

[...]

 stress matrix after NEB project (eV)
     -1.53096      0.00000      0.00000
      0.00000     -1.53096      0.00000
      0.00000      0.00000     -2.08255
  FORCES: max atom, RMS     0.051569    0.021750
  FORCE total and by dimension    0.075343    0.051569
  Stress total and by dimension    3.004114    2.082546
 Conjugate gradient step on ions:
 trial-energy change:   -0.001364  1 .order   -0.000978   -0.001611   -0.000345
  (g-gl).g = 0.938E-03      g.g   = 0.101E-02  gl.gl    = 0.591E-02
 g(Force)  = 0.101E-02   g(Stress)= 0.000E+00 ortho     =-0.325E-04
 gamma     =   0.15881
 trial     =   1.60945
 opt step  =   2.04850  (harmonic =   2.04850) maximal distance =0.00130686
 next E    =   -46.439867   (d E  =  -0.00103)

[...]

 d Force = 0.1643655E-03[ 0.136E-03, 0.192E-03]  d Energy = 0.1678820E-03-0.352E-05
 d Force =-0.1967850E+02[-0.197E+02,-0.197E+02]  d Ewald  =-0.1967851E+02 0.504E-05

[...]

 d Force =-0.5186624E-03[-0.131E-02, 0.273E-03]  d Energy =-0.4990822E-03-0.196E-04
 d Force =-0.3941208E+02[-0.394E+02,-0.394E+02]  d Ewald  =-0.3941213E+02 0.411E-04

[...]

 d Force = 0.7176679E-03[ 0.351E-03, 0.108E-02]  d Energy = 0.4671006E-03 0.251E-03
 d Force = 0.3262232E+02[ 0.326E+02, 0.326E+02]  d Ewald  = 0.3262235E+02-0.234E-04

[...]

 d Force = 0.2578217E-04[ 0.708E-05, 0.445E-04]  d Energy = 0.2325653E-04 0.253E-05
 d Force = 0.4131042E+01[ 0.413E+01, 0.413E+01]  d Ewald  = 0.4131042E+01-0.472E-07

[...]

 eigenvalue-minimisations  :  1456
 total energy-change (2. order) : 0.2060023E-02  (-0.2056798E-02)
 number of electron     132.0002516 magnetization       0.0000002
 augmentation part       84.1617768 magnetization       0.0000154

[...]

 eigenvalues of (default mixing * dielectric matrix)
  average eigenvalue GAMMA=   0.2657
  0.4114  0.1200

[...]

 d Force = 0.4537683E-03[-0.107E-03, 0.101E-02]  d Energy = 0.6118539E-03-0.158E-03
 d Force =-0.4293214E+02[-0.430E+02,-0.429E+02]  d Ewald  =-0.4293213E+02-0.176E-04

 stress matrix after NEB project (eV)
     -1.53764      0.00000      0.00000
      0.00000     -1.53764      0.00000
      0.00000     -0.00000     -1.99781
  FORCES: max atom, RMS     0.037939    0.018196
  FORCE total and by dimension    0.063034    0.037939
  Stress total and by dimension    2.952948    1.997810
 Conjugate gradient step on ions:
 trial-energy change:   -0.000612  1 .order   -0.000454   -0.001015    0.000107
  (g-gl).g = 0.513E-03      g.g   = 0.555E-03  gl.gl    = 0.101E-02
 g(Force)  = 0.555E-03   g(Stress)= 0.000E+00 ortho     =-0.385E-04
 gamma     =   0.50996
 trial     =   1.89659
 opt step  =   1.71542  (harmonic =   1.71542) maximal distance =0.00028454
 next E    =   -46.441015   (d E  =  -0.00046)

[...]

 Broyden mixing:
  rms(total) = 0.40460E-02    rms(broyden)= 0.40453E-02
  rms(prec ) = 0.44873E-02
  weight for this iteration     100.00

[...]

--------------------------------------- Iteration     24(   2)  ---------------------------------------

 eigenvalue-minimisations  :   672
 total energy-change (2. order) :-0.6640021E-04  (-0.9268985E-04)
 number of electron     132.0002506 magnetization       0.0000002
 augmentation part       84.1606904 magnetization      -0.0000036

 Free energy of the ion-electron system (eV)
  alpha Z        PSCENC =       331.96717463
  Ewald energy   TEWEN  =     66277.42223062
  -Hartree energ DENC   =    -82326.82329737
  -exchange      EXHF   =         0.00000000
  -V(xc)+E(xc)   XCENC  =       535.33089324
  PAW double counting   =     15796.63348402   -17091.26149433
  entropy T*S    EENTRO =         0.02442898
  eigenvalues    EBANDS =      -256.47489507
  atomic energy  EATOM  =     16691.49168240
  Solvation  Ediel_sol  =         0.00000000
  free energy    TOTEN  =       -41.68979288 eV

  energy without entropy =      -41.71422186  energy(sigma->0) =      -41.69793587

 average (electrostatic) potential at core
  the test charge radii are     0.9430
  (the norm of the test charge is              1.0000)
       1 -70.0370       2 -70.0370       3 -70.3448       4 -70.3448       5 -70.2468
       6 -70.2468       7 -70.2358       8 -70.2358       9 -70.3664      10 -70.3664
      11 -70.0538      12 -70.0538

 E-fermi :   1.2519     XC(G=0):  -6.4217     alpha+bet : -5.9972

 Fermi energy:         1.2519031760

[...]

 k-point     3 :       0.3333    0.3333    0.0000
  band No.  band energies     occupation
      1      -5.8337      1.00000
      2      -5.1512      1.00000
      3      -4.3647      1.00000
      4      -3.7947      1.00000
      5      -3.7852      1.00000
      6      -3.7204      1.00000
      7      -3.7096      1.00000
      8      -3.6381      1.00000
      9      -3.2953      1.00000
     10      -3.2583      1.00000
     11      -3.1895      1.00000
     12      -3.0873      1.00000
     13      -2.9035      1.00000
     14      -2.6580      1.00000
     15      -2.6552      1.00000
     16      -2.5263      1.00000
     17      -2.5186      1.00000
     18      -2.4881      1.00000
     19      -2.3687      1.00000
     20      -2.2841      1.00000
     21      -2.2459      1.00000
     22      -2.1990      1.00000
     23      -2.1864      1.00000
     24      -2.0822      1.00000
     25      -2.0689      1.00000
     26      -2.0389      1.00000
     27      -2.0330      1.00000
     28      -1.9818      1.00000
     29      -1.9703      1.00000
     30      -1.9683      1.00000
     31      -1.8686      1.00000
     32      -1.8486      1.00000
     33      -1.8068      1.00000
     34      -1.7989      1.00000
     35      -1.7839      1.00000
     36      -1.7627      1.00000
     37      -1.6740      1.00000
     38      -1.6647      1.00000
     39      -1.5902      1.00000
     40      -1.5779      1.00000
     41      -1.5119      1.00000
     42      -1.4407      1.00000
     43      -1.4358      1.00000
     44      -1.4160      1.00000
     45      -1.3971      1.00000
     46      -1.3550      1.00000
     47      -1.1040      1.00000
     48      -1.0666      1.00000
     49      -1.0539      1.00000
     50      -0.9308      1.00000
     51      -0.9236      1.00000
     52      -0.9010      1.00000
     53      -0.8744      1.00000
     54      -0.8422      1.00000
     55      -0.7227      1.00000
     56      -0.7061      1.00000
     57      -0.6891      1.00000
     58      -0.6544      1.00000
     59      -0.6537      1.00000
     60      -0.5915      1.00000
[...]
     74       4.6577     -0.00000
     75       4.8605     -0.00000
     76       5.2245     -0.00000
     77       6.4861     -0.00000
     78       6.6154     -0.00000
     79       6.6844     -0.00000
     80       6.8970      0.00000
     81       7.7994      0.00000
     82       7.8939      0.00000
     83       8.4752      0.00000
     84       8.6347      0.00000
     85       8.6693      0.00000
     86       9.2052      0.00000
     87      10.0270      0.00000
     88      10.3256      0.00000
 Fermi energy:         1.2519031760

 spin component 2

[...]

 k-point     3 :       0.3333    0.3333    0.0000
  band No.  band energies     occupation
      1      -5.8337      1.00000
      2      -5.1512      1.00000
      3      -4.3647      1.00000
      4      -3.7947      1.00000
      5      -3.7852      1.00000
      6      -3.7204      1.00000
      7      -3.7096      1.00000
      8      -3.6381      1.00000
      9      -3.2953      1.00000
     10      -3.2583      1.00000
     11      -3.1895      1.00000
     12      -3.0873      1.00000
     13      -2.9035      1.00000
     14      -2.6580      1.00000
     15      -2.6552      1.00000
     16      -2.5263      1.00000
     17      -2.5186      1.00000
     18      -2.4881      1.00000
     19      -2.3687      1.00000
     20      -2.2841      1.00000
     21      -2.2459      1.00000
     22      -2.1990      1.00000
     23      -2.1864      1.00000
     24      -2.0822      1.00000
     25      -2.0689      1.00000
     26      -2.0389      1.00000
     27      -2.0330      1.00000
     28      -1.9818      1.00000
     29      -1.9703      1.00000
     30      -1.9683      1.00000
     31      -1.8686      1.00000
     32      -1.8486      1.00000
     33      -1.8068      1.00000
     34      -1.7989      1.00000
     35      -1.7839      1.00000
     36      -1.7627      1.00000
     37      -1.6740      1.00000
     38      -1.6647      1.00000
     39      -1.5902      1.00000
     40      -1.5779      1.00000
     41      -1.5119      1.00000
     42      -1.4407      1.00000
     43      -1.4358      1.00000
     44      -1.4160      1.00000
     45      -1.3971      1.00000
     46      -1.3550      1.00000
     47      -1.1040      1.00000
     48      -1.0666      1.00000
     49      -1.0539      1.00000
     50      -0.9308      1.00000
     51      -0.9236      1.00000
     52      -0.9010      1.00000
     53      -0.8744      1.00000
     54      -0.8422      1.00000
     55      -0.7227      1.00000
     56      -0.7061      1.00000
     57      -0.6891      1.00000
     58      -0.6544      1.00000
     59      -0.6537      1.00000
     60      -0.5915      1.00000
[...]
     74       4.6577     -0.00000
     75       4.8605     -0.00000
     76       5.2245     -0.00000
     77       6.4861     -0.00000
     78       6.6154     -0.00000
     79       6.6844     -0.00000
     80       6.8970      0.00000
     81       7.7997      0.00000
     82       7.8942      0.00000
     83       8.4752      0.00000
     84       8.6347      0.00000
     85       8.6693      0.00000
     86       9.2054      0.00000
     87      10.0273      0.00000
     88      10.2833      0.00000

[...]

 soft charge-density along one line, spin component           2
         0         1         2         3         4         5         6         7         8         9
 total charge-density along one line

------------------------ aborting loop because EDIFF is reached ----------------------------------------

 DIPCOR: dipole corrections for dipol
 direction  3 min pos   159,
 dipolmoment           0.000000      0.000000     -0.003043 electrons x Angstroem
 Tr[quadrupol]      -433.499986

 energy correction for charged system         0.000000 eV
 dipol+quadrupol energy correction            0.000003 eV
 added-field ion interaction          0.000000 eV  (added to PSCEN)

  *************** adding dipol energy to TOTEN NOW ****************

         DFTD3 V3.0 Rev 1
 Edisp (eV)   -4.75143

 E6    (eV) :    -1.8870
 E8    (eV) :    -2.8644
 % E8        : 60.29

  FORCE on cell =-STRESS in cart. coord.  units (eV):
  Direction    XX          YY          ZZ          XY          YZ          ZX
  Alpha Z   331.96717   331.96717   331.96717
  Ewald   75052.71719 75052.71719-83828.03048    -0.00000    -0.00000     0.00000
  Hartree 79577.35655 79577.35655-76821.94479    -0.00000    -0.00000    -0.00000
  E(xc)    -771.59565  -771.59565  -772.54665    -0.00000     0.00000     0.00000
  Local  ************************159133.02350     0.00000    -0.00000    -0.00000
  n-local  -247.18343  -258.73103  -256.99200     3.22570     0.00000     0.00000
  augment  1135.60662  1135.60662  1136.88202     0.00000    -0.00000     0.00000
  Kinetic  1089.91203  1068.93006  1079.59587    -4.92060    -0.00000    -0.00000
  Fock        0.00000     0.00000     0.00000     0.00000     0.00000     0.00000
  vdW        -5.81079    -5.81079    -4.09597    -0.00000     0.00000     0.00000
  Total      -1.70800    -1.70800    -2.14133     0.00000    -0.00000     0.00000
  in kB      -8.62619    -8.62619   -10.81471     0.00000    -0.00000     0.00000

 VOLUME and BASIS-vectors are now :
  energy-cutoff  :      400.00
  volume of cell :      317.23
      direct lattice vectors                 reciprocal lattice vectors
     3.630000114  0.000000000  0.000000000     0.275482085  0.000000000  0.000000000
     0.000000000  3.630000114  0.000000000     0.000000000  0.275482085  0.000000000
     0.000000000  0.000000000 24.075000000     0.000000000  0.000000000  0.041536864

  length of vectors
     3.630000114  3.630000114 24.075000000     0.275482085  0.275482085  0.041536864

 FORCES acting on ions
    electron-ion (+dipol)            ewald-force                    non-local-force                 convergence-correction
   -.763E-13 -.168E-13 0.464E+04   -.924E-07 -.924E-07 -.463E+04   -.331E-23 -.165E-22 -.348E+01   0.171E-11 0.165E-11 -.330E+00
   0.774E-06 0.774E-06 0.464E+04   0.924E-07 0.924E-07 -.463E+04   0.165E-23 0.000E+00 -.348E+01   -.293E-10 -.290E-10 -.330E+00
   -.339E-13 0.751E-06 0.286E+04   -.130E-06 0.130E-06 -.286E+04   -.331E-23 -.491E-23 -.173E+01   0.326E-10 -.103E-09 0.196E+00
   0.751E-06 -.582E-12 0.286E+04   0.130E-06 -.130E-06 -.286E+04   0.000E+00 -.165E-23 -.173E+01   -.103E-09 0.327E-10 0.196E+00
   -.100E-13 -.608E-12 0.966E+03   -.138E-06 -.138E-06 -.968E+03   -.165E-23 0.000E+00 0.588E+00   0.794E-11 0.798E-11 0.103E+01
   0.747E-06 0.747E-06 0.966E+03   0.138E-06 0.138E-06 -.968E+03   0.000E+00 0.000E+00 0.588E+00   -.174E-09 -.174E-09 0.103E+01
   -.176E-13 0.747E-06 -.943E+03   -.138E-06 0.138E-06 0.942E+03   0.529E-22 0.000E+00 -.587E+00   0.851E-10 -.130E-09 0.166E+01
   0.747E-06 0.220E-12 -.943E+03   0.138E-06 -.138E-06 0.942E+03   0.000E+00 0.000E+00 -.587E+00   -.130E-09 0.843E-10 0.166E+01
   -.264E-13 -.202E-12 -.285E+04   -.135E-06 -.135E-06 0.285E+04   -.347E-22 -.132E-21 0.131E+01   -.541E-11 -.550E-11 0.104E+01
   0.747E-06 0.747E-06 -.285E+04   0.135E-06 0.135E-06 0.285E+04   0.000E+00 0.529E-22 0.131E+01   0.154E-09 0.154E-09 0.104E+01
   -.507E-13 0.771E-06 -.467E+04   -.978E-07 0.978E-07 0.467E+04   0.265E-22 -.529E-22 0.371E+01   -.116E-09 0.228E-09 0.157E+00
   0.771E-06 -.207E-12 -.467E+04   0.978E-07 -.978E-07 0.467E+04   -.265E-22 0.000E+00 0.371E+01   0.228E-09 -.116E-09 0.157E+00
   0.454E-05 0.454E-05 -.727E+01   -.119E-13 -.355E-13 0.182E-11   0.116E-22 -.155E-21 -.402E+00   -.493E-10 -.489E-10 0.750E+01

 POSITION                                       TOTAL-FORCE (eV/Angst)
      0.00000      0.00000      0.00000         0.000000      0.000000      0.360579
      1.81500      1.81500      0.00000         0.000000     -0.000000      0.360579
      0.00000      1.81500      1.81500         0.000000      0.000000     -0.316689
      1.81500      0.00000      1.81500         0.000000      0.000000     -0.316689
      0.00000     -0.00000      3.52290         0.000000      0.000000     -0.028554
      1.81500      1.81500      3.52290        -0.000000      0.000000     -0.028554
      0.00000      1.81500      5.22955         0.000000     -0.000000      0.010877
      1.81500      0.00000      5.22955         0.000000     -0.000000      0.010877
     -0.00000     -0.00000      6.93612         0.000000      0.000000      0.000121
      1.81500      1.81500      6.93612        -0.000000      0.000000      0.000121
      0.00000      1.81500      8.66232         0.000000     -0.000000     -0.026334
      1.81500      0.00000      8.66232        -0.000000      0.000000     -0.026334
    total drift:                                0.000005      0.000005     -0.170832

  FREE ENERGIE OF THE ION-ELECTRON SYSTEM (eV)
  free  energy   TOTEN  =       -46.44121661 eV

  energy  without entropy=      -46.46564560  energy(sigma->0) =      -46.44935961

 d Force = 0.2236740E-05[-0.576E-05, 0.102E-04]  d Energy = 0.4883072E-04-0.466E-04
 d Force = 0.4103048E+01[ 0.410E+01, 0.410E+01]  d Ewald  = 0.4103048E+01 0.153E-07

 stress matrix after NEB project (eV)
     -1.70800      0.00000      0.00000
      0.00000     -1.70800      0.00000
      0.00000     -0.00000     -2.14133
  FORCES: max atom, RMS     0.028554    0.016468
  FORCE total and by dimension    0.057046    0.028554
  Stress total and by dimension    3.227976    2.141331

 reached required accuracy - stopping structural energy minimisation