 vasp.6.3.2 27Jun22 (build Aug 17 2022 15:43:34) complex

 executed on           tv2STDVTST date 2025.01.21  16:38:48

 INCAR:
   ISTART = 0
   ICHARG = 2
   IPIPOL = 3
   IVDW = 11
   IDIPOL = 3
   IVDW = 11
   ISPIN = 2
   ENCUT = 400
   PREC = Normal
   EDIFF = 2E-04
   GGA = PE
   ISMEAR = 1
   SIGMA = 0.2
   LREAL = .FALSE.
   ISYM = 1
   NSW = 800
   IBRION = 2
   POTIM = 0.5
   ISIF = 2
   EDIFFG = -.03
   NPAR = 4
   LWAVE = .FALSE.
   LCHARG = .FALSE.

 POTCAR:    PAW_PBE Cu 22Jun2005
|           W    W    AA    RRRRR   N    N  II  N    N   GGGG   !!!           |
|           W    W   A  A   R    R  NN   N  II  NN   N  G    G  !!!           |
|           W    W  A    A  R    R  N N  N  II  N N  N  G       !!!           |
|           W WW W  AAAAAA  RRRRR   N  N N  II  N  N N  G  GGG   !            |
|           WW  WW  A    A  R   R   N   NN  II  N   NN  G    G                |
|           W    W  A    A  R    R  N    N  II  N    N   GGGG   !!!           |
|     You use a magnetic or noncollinear calculation, but did not specify     |
|     the initial magnetic moment with the MAGMOM tag. Note that a            |
|     default of 1 will be used for all atoms. This ferromagnetic setup       |
|     may break the symmetry of the crystal, in particular it may rule        |
|     out finding an antiferromagnetic solution. Thence, we recommend         |
|     setting the initial magnetic moment manually or verifying carefully     |
|     that this magnetic setup is desired.                                    |

   TITEL  = PAW_PBE Cu 22Jun2005
   POMASS =   63.546; ZVAL   =   11.000    mass and valenz
   ENMAX  =  295.446; ENMIN  =  221.585 eV

  PAW_PBE Cu 22Jun2005                  :

 POSCAR: FCC Cu
  positions in cartesian coordinates
  velocities in cartesian coordinates
 exchange correlation table for  LEXCH =        8
   RHO(1)=    0.500       N(1)  =     2000
   RHO(2)=  100.500       N(2)  =     4000

 VTST: version 4.2, (08/11/21)

 CHAIN: initializing optimizer

 OPT: Using VASP Conjugate-Gradient optimizer
 CHAIN: Read ICHAIN            0

 POSCAR: FCC Cu
  positions in cartesian coordinates
  velocities in cartesian coordinates

 ion  position               nearest neighbor table
   1  0.000  0.000  0.000-   9 2.57   6 2.57   5 2.57   8 2.57   7 2.57   2 2.57   2 2.57
   2  0.000  0.500  0.000-  10 2.57   5 2.57   6 2.57   7 2.57   8 2.57   1 2.57   1 2.57
   3  0.500  0.000  0.000-  11 2.57   8 2.57   6 2.57   7 2.57   5 2.57   4 2.57   4 2.57
   4  0.500  0.500  0.000-  12 2.57   7 2.57   5 2.57   8 2.57   6 2.57   3 2.57   3 2.57
   5  0.250  0.250  0.054-  13 2.57  10 2.57  12 2.57   9 2.57  11 2.57   2 2.57   4 2.57   1 2.57
                             3 2.57   6 2.57   6 2.57
   6  0.250  0.750  0.054-  14 2.57   9 2.57  11 2.57  10 2.57  12 2.57   1 2.57   3 2.57   2 2.57
                             4 2.57   5 2.57   5 2.57
   7  0.750  0.250  0.054-  15 2.57  12 2.57  11 2.57  10 2.57   4 2.57   9 2.57   3 2.57   2 2.57
                             1 2.57   8 2.57   8 2.57
   8  0.750  0.750  0.054-  16 2.57  11 2.57  12 2.57   9 2.57  10 2.57   3 2.57   4 2.57   1 2.57
                             2 2.57   7 2.57   7 2.57
   9  0.000  0.000  0.107-   1 2.57  17 2.57   6 2.57   5 2.57   8 2.57   7 2.57  14 2.57  13 2.57
                            16 2.57  15 2.57  10 2.57  10 2.57
  10  0.000  0.500  0.107-   2 2.57  18 2.57   5 2.57   6 2.57   7 2.57  13 2.57   8 2.57  14 2.57
                            15 2.57  16 2.57   9 2.57   9 2.57
  11  0.500  0.000  0.107-   3 2.57  19 2.57   8 2.57   6 2.57   7 2.57   5 2.57  16 2.57  14 2.57
                            15 2.57  13 2.57  12 2.57  12 2.57
  12  0.500  0.500  0.107-   4 2.57  20 2.57   7 2.57   5 2.57   8 2.57   6 2.57  15 2.57  13 2.57
                            16 2.57  14 2.57  11 2.57  11 2.57
  13  0.250  0.250  0.161-   5 2.57  21 2.57  18 2.57  20 2.57  10 2.57  17 2.57  12 2.57  19 2.57
                             9 2.57  11 2.57  14 2.57  14 2.57
  14  0.250  0.750  0.161-   6 2.57  22 2.57  17 2.57  19 2.57  18 2.57  20 2.57   9 2.57  11 2.57
                            10 2.57  12 2.57  13 2.57  13 2.57
  15  0.750  0.250  0.161-   7 2.57  23 2.57  20 2.57  12 2.57  19 2.57  18 2.57  11 2.57  10 2.57
                            17 2.57   9 2.57  16 2.57  16 2.57
  16  0.750  0.750  0.161-   8 2.57  24 2.57  19 2.57  20 2.57  11 2.57  17 2.57  12 2.57  18 2.57
                             9 2.57  10 2.57  15 2.57  15 2.57
  17  0.000  0.000  0.214-  25 2.57   9 2.57  22 2.57  14 2.57  13 2.57  21 2.57  24 2.57  16 2.57
                            15 2.57  23 2.57  18 2.57  18 2.57
  18  0.000  0.500  0.214-  26 2.57  10 2.57  21 2.57  13 2.57  22 2.57  14 2.57  23 2.57  15 2.57
                            24 2.57  16 2.57  17 2.57  17 2.57
  19  0.500  0.000  0.214-  27 2.57  11 2.57  24 2.57  16 2.57  14 2.57  22 2.57  15 2.57  23 2.57
                            13 2.57  21 2.57  20 2.57  20 2.57
  20  0.500  0.500  0.214-  28 2.57  12 2.57  23 2.57  15 2.57  13 2.57  21 2.57  24 2.57  16 2.57
                            22 2.57  14 2.57  19 2.57  19 2.57
  21  0.250  0.250  0.268-  13 2.57  29 2.57  26 2.57  28 2.57  18 2.57  20 2.57  25 2.57  27 2.57
                            17 2.57  19 2.57  22 2.57  22 2.57
  22  0.250  0.750  0.268-  14 2.57  30 2.57  25 2.57  27 2.57  17 2.57  19 2.57  26 2.57  28 2.57
                            18 2.57  20 2.57  21 2.57  21 2.57
  23  0.750  0.250  0.268-  15 2.57  31 2.57  28 2.57  20 2.57  27 2.57  19 2.57  26 2.57  18 2.57
                            25 2.57  17 2.57  24 2.57  24 2.57
  24  0.750  0.750  0.268-  16 2.57  32 2.57  27 2.57  19 2.57  28 2.57  20 2.57  25 2.57  17 2.57
                            26 2.57  18 2.57  23 2.57  23 2.57
  25  0.000  0.000  0.321-  17 2.57  22 2.57  21 2.57  30 2.57  24 2.57  29 2.57  23 2.57  32 2.57
                            31 2.57  26 2.57  26 2.57
  26  0.000  0.500  0.321-  18 2.57  21 2.57  22 2.57  29 2.57  23 2.57  30 2.57  24 2.57  31 2.57
                            32 2.57  25 2.57  25 2.57
  27  0.500  0.000  0.321-  19 2.57  24 2.57  22 2.57  23 2.57  21 2.57  32 2.57  30 2.57  31 2.57
                            29 2.57  28 2.57  28 2.57
  28  0.500  0.500  0.321-  20 2.57  23 2.57  21 2.57  24 2.57  22 2.57  31 2.57  29 2.57  32 2.57
                            30 2.57  27 2.57  27 2.57
  29  0.250  0.250  0.375-  21 2.57  26 2.57  28 2.57  25 2.57  27 2.57  30 2.57  30 2.57
  30  0.250  0.750  0.375-  22 2.57  25 2.57  27 2.57  26 2.57  28 2.57  29 2.57  29 2.57
  31  0.750  0.250  0.375-  23 2.57  28 2.57  27 2.57  26 2.57  25 2.57  32 2.57  32 2.57
  32  0.750  0.750  0.375-  24 2.57  27 2.57  28 2.57  25 2.57  26 2.57  31 2.57  31 2.57

  LATTYP: Found a simple orthorhombic cell.
 ALAT       =     5.1335954666
 B/A-ratio  =     1.4142135422
 C/A-ratio  =     4.6719285747

  Lattice vectors:

 A1 = (   0.0000000000,  -5.1335954666,   0.0000000000)
 A2 = (   7.2600002289,   0.0000000000,   0.0000000000)
 A3 = (   0.0000000000,   0.0000000000,  23.9837913513)

Analysis of symmetry for initial positions (statically):
 Subroutine PRICEL returns following result:

[...]

   4 primitive cells build up your supercell.

 Routine SETGRP: Setting up the symmetry group for a
 simple orthorhombic supercell.

 Subroutine GETGRP returns: Found  8 space group operations
 (whereof  4 operations were pure point group operations)
 out of a pool of  8 trial point group operations.

The static configuration has the point symmetry C_2v.
 The point group associated with its full space group is D_2h.

Analysis of symmetry for dynamics (positions and initial velocities):
 Subroutine PRICEL returns following result:

[...]

The dynamic configuration has the point symmetry C_2v.
 The point group associated with its full space group is D_2h.

Analysis of constrained symmetry for selective dynamics:
 Subroutine PRICEL returns following result:

[...]

The constrained configuration has the point symmetry C_2v.

Analysis of structural, dynamic, and magnetic symmetry:
 Subroutine PRICEL returns following result:

  LATTYP: Found a simple orthorhombic cell.
 ALAT       =     2.5667977330
 B/A-ratio  =     1.4142135422
 C/A-ratio  =     9.3438571505

  Lattice vectors:

 A1 = (   0.0000000000,  -2.5667977330,   0.0000000000)
 A2 = (   3.6300001140,   0.0000000000,   0.0000000000)
 A3 = (   0.0000000000,   0.0000000000,  23.9837913513)

   4 primitive cells build up your supercell.

 Routine SETGRP: Setting up the symmetry group for a
 simple orthorhombic supercell.

 Subroutine GETGRP returns: Found  4 space group operations
 (whereof  4 operations were pure point group operations)
 out of a pool of  8 trial point group operations.

The overall configuration has the point symmetry C_2v.

 Subroutine INISYM returns: Found  4 space group operations
 (whereof  4 operations are pure point group operations),
 and found     4 'primitive' translations

                                     Primitive cell

  volume of cell :     223.4684

  direct lattice vectors                    reciprocal lattice vectors
     0.000000000 -2.566797733  0.000000000     0.000000000 -0.389590495  0.000000000
     3.630000114  0.000000000  0.000000000     0.275482085  0.000000000  0.000000000
     0.000000000  0.000000000 23.983791351     0.000000000  0.000000000  0.041694826

  length of vectors
     2.566797733  3.630000114 23.983791351     0.389590495  0.275482085  0.041694826

  position of ions in fractional coordinates (direct lattice)
     0.000000000  0.000000000  0.000000000
     0.500000000  0.500000000  0.053511090
     0.000000000  0.000000000  0.107022181
     0.500000000  0.500000000  0.160533271
     0.000000000  0.000000000  0.214044362
     0.500000000  0.500000000  0.267555452
     0.000000000  0.000000000  0.321066543
     0.500000000  0.500000000  0.374577633

  ion indices of the primitive-cell ions
   primitive index   ion index
                 1           1
                 2           6
                 3           9
                 4          14
                 5          17
                 6          22
                 7          25
                 8          30

 KPOINTS: Auto-mesh

Automatic generation of k-mesh.
 Grid dimensions read from file:
 generate k-points for:    3    3    1

 Generating k-lattice:

  Cartesian coordinates                     Fractional coordinates (reciprocal lattice)
     0.045913681  0.000000000  0.000000000     0.333333333  0.000000000  0.000000000
     0.000000000  0.064931749  0.000000000     0.000000000  0.333333333  0.000000000
     0.000000000  0.000000000  0.041694826     0.000000000  0.000000000  1.000000000

  Length of vectors
     0.045913681  0.064931749  0.041694826

  Shift w.r.t. Gamma in fractional coordinates (k-lattice)
     0.000000000  0.000000000  0.000000000

 Subroutine IBZKPT returns following result:

 Found      4 irreducible k-points:

 Following reciprocal coordinates:
            Coordinates               Weight
  0.000000  0.000000  0.000000      1.000000
  0.333333  0.000000  0.000000      2.000000
  0.000000  0.333333  0.000000      2.000000
[...]
  free energy    TOTEN  =      -111.63497951 eV

  energy without entropy =     -111.65906326  energy(sigma->0) =     -111.64300743

 average (electrostatic) potential at core
  the test charge radii are     0.9430
  (the norm of the test charge is              1.0000)
       1 -70.0617       2 -70.0617       3 -70.0617       4 -70.0617       5 -70.4700
       6 -70.4700       7 -70.4700       8 -70.4700       9 -70.5302      10 -70.5302
      11 -70.5302      12 -70.5302      13 -70.5133      14 -70.5133      15 -70.5133
      16 -70.5133      17 -70.4963      18 -70.4963      19 -70.4963      20 -70.4963
      21 -70.5344      22 -70.5344      23 -70.5344      24 -70.5344      25 -70.4879
      26 -70.4879      27 -70.4879      28 -70.4879      29 -70.1537      30 -70.1537
      31 -70.1537      32 -70.1537

 E-fermi :   0.6990     XC(G=0):  -6.1727     alpha+bet : -5.6757

 Fermi energy:         0.6990181075

[...]

 k-point     4 :       0.3333    0.3333    0.0000
  band No.  band energies     occupation
      1      -7.3685      1.00000
      2      -6.4634      1.00000
      3      -6.4100      1.00000
      4      -5.6675      1.00000
      5      -5.5753      1.00000
      6      -5.1036      1.00000
      7      -5.0574      1.00000
      8      -4.8881      1.00000
      9      -4.5146      1.00000
     10      -4.3164      1.00000
     11      -4.1495      1.00000
     12      -4.0254      1.00000
     13      -3.9331      1.00000
     14      -3.8482      1.00000
     15      -3.7754      1.00000
     16      -3.7500      1.00000
     17      -3.7298      1.00000
     18      -3.6749      1.00000
     19      -3.6029      1.00000
     20      -3.4674      1.00000
     21      -3.4113      1.00000
     22      -3.4059      1.00000
     23      -3.4023      1.00000
     24      -3.3808      1.00000
     25      -3.3666      1.00000
     26      -3.3495      1.00000
     27      -3.3404      1.00000
     28      -3.3351      1.00000
     29      -3.2986      1.00000
     30      -3.2880      1.00000
     31      -3.2393      1.00000
     32      -3.2142      1.00000
     33      -3.1900      1.00000
     34      -3.1572      1.00000
     35      -3.1049      1.00000
     36      -3.1030      1.00000
     37      -3.0727      1.00000
     38      -3.0685      1.00000
     39      -3.0234      1.00000
     40      -2.9522      1.00000
     41      -2.8840      1.00000
     42      -2.8454      1.00000
     43      -2.8085      1.00000
     44      -2.8030      1.00000
     45      -2.7809      1.00000
     46      -2.7512      1.00000
     47      -2.7508      1.00000
     48      -2.7305      1.00000
     49      -2.7264      1.00000
     50      -2.6860      1.00000
     51      -2.6643      1.00000
     52      -2.6638      1.00000
     53      -2.6233      1.00000
     54      -2.6232      1.00000
     55      -2.6086      1.00000
     56      -2.5690      1.00000
     57      -2.5640      1.00000
     58      -2.5499      1.00000
     59      -2.5234      1.00000
     60      -2.4965      1.00000
[...]
    214       7.7414      0.00000
    215       7.8171      0.00000
    216       7.8948      0.00000
    217       7.9232      0.00000
    218       8.0108      0.00000
    219       8.1201      0.00000
    220       8.1226      0.00000
    221       8.3635      0.00000
    222       8.8461      0.00000
    223       8.8491      0.00000
    224       8.8876      0.00000
    225       8.9471      0.00000
    226       9.0576      0.00000
    227       9.0751      0.00000
    228       9.4848      0.00000
 Fermi energy:         0.6990181075

 spin component 2

[...]

 k-point     4 :       0.3333    0.3333    0.0000
  band No.  band energies     occupation
      1      -7.3685      1.00000
      2      -6.4634      1.00000
      3      -6.4100      1.00000
      4      -5.6675      1.00000
      5      -5.5753      1.00000
      6      -5.1036      1.00000
      7      -5.0574      1.00000
      8      -4.8881      1.00000
      9      -4.5146      1.00000
     10      -4.3164      1.00000
     11      -4.1495      1.00000
     12      -4.0254      1.00000
     13      -3.9331      1.00000
     14      -3.8482      1.00000
     15      -3.7754      1.00000
     16      -3.7500      1.00000
     17      -3.7298      1.00000
     18      -3.6749      1.00000
     19      -3.6029      1.00000
     20      -3.4674      1.00000
     21      -3.4113      1.00000
     22      -3.4059      1.00000
     23      -3.4023      1.00000
     24      -3.3808      1.00000
     25      -3.3666      1.00000
     26      -3.3495      1.00000
     27      -3.3404      1.00000
     28      -3.3351      1.00000
     29      -3.2986      1.00000
     30      -3.2880      1.00000
     31      -3.2393      1.00000
     32      -3.2142      1.00000
     33      -3.1900      1.00000
     34      -3.1572      1.00000
     35      -3.1049      1.00000
     36      -3.1030      1.00000
     37      -3.0727      1.00000
     38      -3.0685      1.00000
     39      -3.0234      1.00000
     40      -2.9522      1.00000
     41      -2.8840      1.00000
     42      -2.8454      1.00000
     43      -2.8085      1.00000
     44      -2.8030      1.00000
     45      -2.7809      1.00000
     46      -2.7512      1.00000
     47      -2.7508      1.00000
     48      -2.7305      1.00000
     49      -2.7264      1.00000
     50      -2.6860      1.00000
     51      -2.6643      1.00000
     52      -2.6638      1.00000
     53      -2.6233      1.00000
     54      -2.6232      1.00000
     55      -2.6086      1.00000
     56      -2.5690      1.00000
     57      -2.5640      1.00000
     58      -2.5499      1.00000
     59      -2.5234      1.00000
     60      -2.4965      1.00000
[...]
    214       7.7414      0.00000
    215       7.8172      0.00000
    216       7.8950      0.00000
    217       7.9233      0.00000
    218       8.0108      0.00000
    219       8.1201      0.00000
    220       8.1227      0.00000
    221       8.3635      0.00000
    222       8.8463      0.00000
    223       8.8491      0.00000
    224       8.8877      0.00000
    225       8.9472      0.00000
    226       9.0576      0.00000
    227       9.0752      0.00000
    228       9.4848      0.00000

[...]

 soft charge-density along one line, spin component           2
         0         1         2         3         4         5         6         7         8         9
 total charge-density along one line

------------------------ aborting loop because EDIFF is reached ----------------------------------------

 DIPCOR: dipole corrections for dipol
 direction  3 min pos   170,
 dipolmoment           0.000000      0.000000      0.002830 electrons x Angstroem
 Tr[quadrupol]     -2606.207033

 energy correction for charged system         0.000000 eV
 dipol+quadrupol energy correction            0.000001 eV
 added-field ion interaction          0.000000 eV  (added to PSCEN)

  *************** adding dipol energy to TOTEN NOW ****************

         DFTD3 V3.0 Rev 1
 Edisp (eV)  -12.19984

 E6    (eV) :    -4.8673
 E8    (eV) :    -7.3325
 % E8        : 60.10

  FORCE on cell =-STRESS in cart. coord.  units (eV):
  Direction    XX          YY          ZZ          XY          YZ          ZX
  Alpha Z   837.79172   837.79172   837.79172
  Ewald  196162.63022196779.24907************    -0.00000    -0.00000     0.00000
  Hartree208324.80523208755.37865************    -0.00000    -0.00000    -0.00000
  E(xc)   -2056.82854 -2056.10200 -2058.83533    -0.00000     0.00000    -0.00000
  Local  ************************416490.95903     0.00000     0.00000    -0.00000
  n-local  -691.77692  -687.73040  -693.27164     3.09451     0.00000    -0.00000
  augment  3029.50529  3026.60730  3030.81505    -0.00000    -0.00000    -0.00000
  Kinetic  2873.37806  2872.00256  2879.06357     2.29533     0.00000    -0.00000
  Fock        0.00000     0.00000     0.00000     0.00000     0.00000     0.00000
  vdW       -14.92041   -14.86609   -10.46941    -0.00000     0.00000    -0.00000
  Total     -16.52858   -15.03990    -3.11748     0.00000     0.00000     0.00000
  in kB     -29.62580   -26.95749    -5.58777     0.00000     0.00000     0.00000

 VOLUME and BASIS-vectors are now :
  energy-cutoff  :      400.00
  volume of cell :      893.87
      direct lattice vectors                 reciprocal lattice vectors
     7.260000229  0.000000000  0.000000000     0.137741042  0.000000000  0.000000000
     0.000000000  5.133595467  0.000000000     0.000000000  0.194795248  0.000000000
     0.000000000  0.000000000 23.983791351     0.000000000  0.000000000  0.041694826

  length of vectors
     7.260000229  5.133595467 23.983791351     0.137741042  0.194795248  0.041694826

 FORCES acting on ions
    electron-ion (+dipol)            ewald-force                    non-local-force                 convergence-correction
   -.116E-12 -.165E-12 0.458E+04   -.304E-06 -.144E-06 -.458E+04   0.000E+00 0.000E+00 -.546E+01   0.100E-09 -.233E-10 -.322E-01
   -.126E-12 0.116E-05 0.458E+04   -.304E-06 0.196E-06 -.458E+04   0.662E-23 0.000E+00 -.546E+01   0.100E-09 -.130E-10 -.322E-01
   0.183E-05 -.733E-13 0.458E+04   0.163E-06 -.144E-06 -.458E+04   0.149E-22 0.000E+00 -.546E+01   -.128E-09 -.235E-10 -.322E-01
   0.183E-05 0.116E-05 0.458E+04   0.163E-06 0.196E-06 -.458E+04   0.149E-22 0.000E+00 -.546E+01   -.127E-09 -.134E-10 -.322E-01
   0.838E-06 -.132E-05 0.347E+04   -.165E-06 -.236E-06 -.347E+04   0.000E+00 0.662E-23 0.113E-01   -.617E-10 -.279E-10 0.430E-01
   0.838E-06 -.188E-06 0.347E+04   -.165E-06 0.130E-06 -.347E+04   0.000E+00 -.132E-22 0.113E-01   -.623E-10 0.644E-11 0.430E-01
   0.252E-05 -.132E-05 0.347E+04   0.449E-06 -.236E-06 -.347E+04   -.993E-23 -.662E-23 0.113E-01   -.272E-09 -.277E-10 0.430E-01
   0.252E-05 -.188E-06 0.347E+04   0.449E-06 0.130E-06 -.347E+04   0.132E-22 -.265E-22 0.113E-01   -.271E-09 0.581E-11 0.430E-01
   -.131E-12 0.860E-12 0.207E+04   -.498E-06 -.148E-06 -.207E+04   0.000E+00 0.662E-23 -.129E+01   -.313E-09 0.794E-10 0.449E+00
   -.133E-12 0.113E-05 0.207E+04   -.498E-06 0.258E-06 -.207E+04   0.199E-22 0.993E-23 -.129E+01   -.314E-09 -.537E-10 0.449E+00
   0.169E-05 0.395E-12 0.207E+04   0.206E-06 -.148E-06 -.207E+04   0.199E-22 -.132E-22 -.129E+01   -.721E-09 0.811E-10 0.449E+00
   0.169E-05 0.113E-05 0.207E+04   0.206E-06 0.258E-06 -.207E+04   0.132E-22 0.132E-22 -.129E+01   -.720E-09 -.542E-10 0.449E+00
   0.846E-06 -.132E-05 0.698E+03   -.208E-06 -.260E-06 -.699E+03   0.529E-22 0.000E+00 -.192E+00   0.264E-09 0.159E-09 0.561E+00
   0.846E-06 -.188E-06 0.698E+03   -.208E-06 0.150E-06 -.699E+03   0.000E+00 -.662E-23 -.192E+00   0.264E-09 0.563E-11 0.561E+00
   0.254E-05 -.132E-05 0.698E+03   0.504E-06 -.260E-06 -.699E+03   -.265E-22 0.000E+00 -.192E+00   -.209E-09 0.160E-09 0.561E+00
   0.254E-05 -.188E-06 0.698E+03   0.504E-06 0.150E-06 -.699E+03   -.331E-23 0.000E+00 -.192E+00   -.209E-09 0.122E-11 0.561E+00
   -.120E-12 0.347E-12 -.695E+03   -.506E-06 -.147E-06 0.695E+03   0.662E-23 0.000E+00 -.139E+00   0.588E-09 -.364E-10 0.178E+00
   -.116E-12 0.113E-05 -.695E+03   -.506E-06 0.260E-06 0.695E+03   0.132E-22 0.265E-22 -.139E+00   0.588E-09 -.117E-09 0.178E+00
   0.168E-05 -.938E-12 -.695E+03   0.206E-06 -.147E-06 0.695E+03   -.414E-23 0.265E-22 -.139E+00   0.488E-09 -.378E-10 0.178E+00
   0.168E-05 0.113E-05 -.695E+03   0.206E-06 0.260E-06 0.695E+03   0.993E-23 0.000E+00 -.139E+00   0.489E-09 -.115E-09 0.178E+00
   0.852E-06 -.132E-05 -.204E+04   -.209E-06 -.258E-06 0.204E+04   -.132E-22 -.132E-22 0.133E+01   0.491E-11 -.114E-10 0.389E-01
   0.852E-06 -.189E-06 -.204E+04   -.209E-06 0.152E-06 0.204E+04   -.132E-22 0.000E+00 0.133E+01   0.553E-11 -.255E-10 0.389E-01
   0.256E-05 -.132E-05 -.204E+04   0.493E-06 -.258E-06 0.204E+04   0.662E-23 -.132E-22 0.133E+01   -.220E-10 -.122E-10 0.389E-01
   0.256E-05 -.189E-06 -.204E+04   0.493E-06 0.152E-06 0.204E+04   -.662E-23 -.331E-23 0.133E+01   -.226E-10 -.237E-10 0.389E-01
   -.144E-12 0.903E-12 -.350E+04   -.461E-06 -.127E-06 0.350E+04   0.000E+00 0.662E-23 -.904E+00   -.594E-09 0.415E-10 0.155E+00
   -.132E-12 0.113E-05 -.350E+04   -.461E-06 0.239E-06 0.350E+04   0.199E-22 0.662E-23 -.904E+00   -.594E-09 0.793E-10 0.155E+00
   0.166E-05 0.708E-12 -.350E+04   0.163E-06 -.127E-06 0.350E+04   -.993E-23 0.662E-23 -.904E+00   -.316E-09 0.406E-10 0.155E+00
   0.166E-05 0.113E-05 -.350E+04   0.163E-06 0.239E-06 0.350E+04   0.290E-23 0.662E-23 -.904E+00   -.316E-09 0.798E-10 0.155E+00
   0.902E-06 -.135E-05 -.459E+04   -.166E-06 -.206E-06 0.459E+04   0.000E+00 0.000E+00 0.532E+01   -.136E-09 0.244E-10 0.322E+00
   0.902E-06 -.192E-06 -.459E+04   -.166E-06 0.143E-06 0.459E+04   0.000E+00 0.265E-22 0.532E+01   -.136E-09 0.509E-10 0.322E+00
   0.271E-05 -.135E-05 -.459E+04   0.332E-06 -.206E-06 0.459E+04   0.000E+00 0.000E+00 0.532E+01   0.129E-09 0.247E-10 0.322E+00
   0.271E-05 -.192E-06 -.459E+04   0.332E-06 0.143E-06 0.459E+04   0.000E+00 0.132E-22 0.532E+01   0.129E-09 0.495E-10 0.322E+00
   0.412E-04 -.304E-05 -.156E+01   0.236E-12 0.991E-13 0.146E-10   0.128E-21 0.596E-22 -.532E+01   -.239E-08 0.272E-09 0.686E+01

 POSITION                                       TOTAL-FORCE (eV/Angst)
      0.00000      0.00000      0.00000        -0.000000     -0.000000      0.453368
      0.00000      2.56680      0.00000        -0.000000      0.000000      0.453368
      3.63000      0.00000      0.00000         0.000000      0.000000      0.453368
      3.63000      2.56680      0.00000         0.000000      0.000000      0.453368
      1.81500      1.28340      1.28340         0.000000     -0.000000     -0.459935
      1.81500      3.85020      1.28340         0.000000     -0.000000     -0.459935
      5.44500      1.28340      1.28340         0.000000     -0.000000     -0.459935
      5.44500      3.85020      1.28340        -0.000000     -0.000000     -0.459935
      0.00000      0.00000      2.52822        -0.000000     -0.000000     -0.014823
     -0.00000      2.56680      2.52822         0.000000      0.000000     -0.014823
      3.63000      0.00000      2.52822        -0.000000     -0.000000     -0.014823
      3.63000      2.56680      2.52822         0.000000      0.000000     -0.014823
      1.81500      1.28340      3.76906        -0.000000     -0.000000      0.007916
      1.81500      3.85020      3.76906        -0.000000      0.000000      0.007916
      5.44500      1.28340      3.76906         0.000000     -0.000000      0.007916
      5.44500      3.85020      3.76906         0.000000      0.000000      0.007916
      0.00000      0.00000      5.00452         0.000000      0.000000      0.002821
     -0.00000      2.56680      5.00452        -0.000000     -0.000000      0.002821
      3.63000      0.00000      5.00452         0.000000      0.000000      0.002821
      3.63000      2.56680      5.00452        -0.000000     -0.000000      0.002821
      1.81500      1.28340      6.22331        -0.000000     -0.000000     -0.001207
      1.81500      3.85020      6.22331        -0.000000      0.000000     -0.001207
      5.44500      1.28340      6.22331        -0.000000      0.000000     -0.001207
      5.44500      3.85020      6.22331        -0.000000     -0.000000     -0.001207
     -0.00000      0.00000      7.53461        -0.000000      0.000000      0.013080
     -0.00000      2.56680      7.53461        -0.000000      0.000000      0.013080
      3.63000     -0.00000      7.53461        -0.000000     -0.000000      0.013080
      3.63000      2.56680      7.53461        -0.000000      0.000000      0.013080
      1.81500      1.28340      8.67777         0.000000      0.000000     -0.001219
      1.81500      3.85020      8.67777        -0.000000      0.000000     -0.001219
      5.44500      1.28340      8.67777        -0.000000     -0.000000     -0.001219
      5.44500      3.85020      8.67777         0.000000      0.000000     -0.001219
    total drift:                                0.000041     -0.000003     -0.021346

  FREE ENERGIE OF THE ION-ELECTRON SYSTEM (eV)
  free  energy   TOTEN  =      -123.83481417 eV

  energy  without entropy=     -123.85889792  energy(sigma->0) =     -123.84284209

 d Force = 0.1526162E-02[-0.704E-04, 0.312E-02]  d Energy = 0.1612947E-02-0.868E-04
 d Force = 0.2951112E+02[ 0.295E+02, 0.296E+02]  d Ewald  = 0.2951111E+02 0.498E-05

 stress matrix after NEB project (eV)
    -16.52858      0.00000      0.00000
      0.00000    -15.03990      0.00000
      0.00000      0.00000     -3.11748
  FORCES: max atom, RMS     0.014823    0.007619
  FORCE total and by dimension    0.043098    0.014823
  Stress total and by dimension   22.563496   16.528582

 reached required accuracy - stopping structural energy minimisation