 vasp.6.3.2 27Jun22 (build Aug 17 2022 15:43:34) complex

 executed on           tv2STDVTST date 2025.01.21  16:00:10

 INCAR:
   ISTART = 0
   ICHARG = 2
   IPIPOL = 3
   IVDW = 11
   IDIPOL = 3
   IVDW = 11
   ISPIN = 2
   ENCUT = 400
   PREC = Normal
   EDIFF = 2E-04
   GGA = PE
   ISMEAR = 1
   SIGMA = 0.2
   LREAL = .FALSE.
   ISYM = 1
   NSW = 800
   IBRION = 2
   POTIM = 0.5
   ISIF = 2
   EDIFFG = -.03
   NPAR = 4
   LWAVE = .FALSE.
   LCHARG = .FALSE.

 POTCAR:    PAW_PBE Cu 22Jun2005
|           W    W    AA    RRRRR   N    N  II  N    N   GGGG   !!!           |
|           W    W   A  A   R    R  NN   N  II  NN   N  G    G  !!!           |
|           W    W  A    A  R    R  N N  N  II  N N  N  G       !!!           |
|           W WW W  AAAAAA  RRRRR   N  N N  II  N  N N  G  GGG   !            |
|           WW  WW  A    A  R   R   N   NN  II  N   NN  G    G                |
|           W    W  A    A  R    R  N    N  II  N    N   GGGG   !!!           |
|     You use a magnetic or noncollinear calculation, but did not specify     |
|     the initial magnetic moment with the MAGMOM tag. Note that a            |
|     default of 1 will be used for all atoms. This ferromagnetic setup       |
|     may break the symmetry of the crystal, in particular it may rule        |
|     out finding an antiferromagnetic solution. Thence, we recommend         |
|     setting the initial magnetic moment manually or verifying carefully     |
|     that this magnetic setup is desired.                                    |

   TITEL  = PAW_PBE Cu 22Jun2005
   POMASS =   63.546; ZVAL   =   11.000    mass and valenz
   ENMAX  =  295.446; ENMIN  =  221.585 eV

  PAW_PBE Cu 22Jun2005                  :

 POSCAR: FCC Cu
  positions in cartesian coordinates
  velocities in cartesian coordinates
 exchange correlation table for  LEXCH =        8
   RHO(1)=    0.500       N(1)  =     2000
   RHO(2)=  100.500       N(2)  =     4000

 VTST: version 4.2, (08/11/21)

 CHAIN: initializing optimizer

 OPT: Using VASP Conjugate-Gradient optimizer
 CHAIN: Read ICHAIN            0

 POSCAR: FCC Cu
  positions in cartesian coordinates
  velocities in cartesian coordinates

 ion  position               nearest neighbor table
   1  0.000  0.000  0.000-   2 2.57   2 2.57   2 2.57   2 2.57   3 2.57
   2  0.500  0.500  0.064-   3 2.57   3 2.57   3 2.57   1 2.57   3 2.57   1 2.57   1 2.57   1 2.57
                             4 2.57
   3  0.000  0.000  0.127-   2 2.57   2 2.57   2 2.57   4 2.57   2 2.57   4 2.57   4 2.57   4 2.57
                             1 2.57   5 2.57
   4  0.500  0.500  0.191-   3 2.57   5 2.57   3 2.57   5 2.57   3 2.57   5 2.57   3 2.57   5 2.57
                             2 2.57
   5  0.000  0.000  0.255-   4 2.57   4 2.57   4 2.57   4 2.57   3 2.57

  LATTYP: Found a simple orthorhombic cell.
 ALAT       =     2.5667977333
 B/A-ratio  =     1.4142135422
 C/A-ratio  =     7.8438572462

  Lattice vectors:

 A1 = (   0.0000000000,  -2.5667977333,   0.0000000000)
 A2 = (   3.6300001144,   0.0000000000,   0.0000000000)
 A3 = (   0.0000000000,   0.0000000000,  20.1335950000)

Analysis of symmetry for initial positions (statically):
 Subroutine PRICEL returns:
 Original cell was already a primitive cell.

 Routine SETGRP: Setting up the symmetry group for a
 simple orthorhombic supercell.

 Subroutine GETGRP returns: Found  8 space group operations
 (whereof  4 operations were pure point group operations)
 out of a pool of  8 trial point group operations.

The static configuration has the point symmetry C_2v.
 The point group associated with its full space group is D_2h.

Analysis of symmetry for dynamics (positions and initial velocities):
 Subroutine PRICEL returns:
 Original cell was already a primitive cell.

[...]

The dynamic configuration has the point symmetry C_2v.
 The point group associated with its full space group is D_2h.

Analysis of constrained symmetry for selective dynamics:
 Subroutine PRICEL returns:
 Original cell was already a primitive cell.

[...]

The constrained configuration has the point symmetry C_2v.

Analysis of structural, dynamic, and magnetic symmetry:
 Subroutine PRICEL returns:
 Original cell was already a primitive cell.

 Routine SETGRP: Setting up the symmetry group for a
 simple orthorhombic supercell.

 Subroutine GETGRP returns: Found  4 space group operations
 (whereof  4 operations were pure point group operations)
 out of a pool of  8 trial point group operations.

The overall configuration has the point symmetry C_2v.

 Subroutine INISYM returns: Found  4 space group operations
 (whereof  4 operations are pure point group operations),
 and found     1 'primitive' translations

                                     Primitive cell

  volume of cell :     187.5943

  direct lattice vectors                    reciprocal lattice vectors
     3.630000114  0.000000000  0.000000000     0.275482085  0.000000000  0.000000000
     0.000000000  2.566797733  0.000000000     0.000000000  0.389590495  0.000000000
     0.000000000  0.000000000 20.133595000     0.000000000  0.000000000  0.049668229

  length of vectors
     3.630000114  2.566797733 20.133595000     0.275482085  0.389590495  0.049668229

  position of ions in fractional coordinates (direct lattice)
     0.000000000  0.000000000  0.000000000
     0.500000000  0.500000000  0.063744148
     0.000000000  0.000000000  0.127488297
     0.500000000  0.500000000  0.191232445
     0.000000000  0.000000000  0.254976593

  ion indices of the primitive-cell ions
   primitive index   ion index
                 1           1
                 2           2
                 3           3
                 4           4
                 5           5

 KPOINTS: Auto-mesh

Automatic generation of k-mesh.
 Grid dimensions read from file:
 generate k-points for:    3    3    1

 Generating k-lattice:

  Cartesian coordinates                     Fractional coordinates (reciprocal lattice)
     0.091827362  0.000000000  0.000000000     0.333333333  0.000000000  0.000000000
     0.000000000  0.129863498  0.000000000     0.000000000  0.333333333  0.000000000
     0.000000000  0.000000000  0.049668229     0.000000000  0.000000000  1.000000000

  Length of vectors
     0.091827362  0.129863498  0.049668229

  Shift w.r.t. Gamma in fractional coordinates (k-lattice)
     0.000000000  0.000000000  0.000000000

 Subroutine IBZKPT returns following result:

 Found      4 irreducible k-points:

 Following reciprocal coordinates:
            Coordinates               Weight
  0.000000  0.000000  0.000000      1.000000
  0.333333  0.000000  0.000000      2.000000
  0.000000  0.333333  0.000000      2.000000
  0.333333  0.333333  0.000000      4.000000

 Following cartesian coordinates:
            Coordinates               Weight
  0.000000  0.000000  0.000000      1.000000
  0.091827  0.000000  0.000000      2.000000
  0.000000  0.129863  0.000000      2.000000
  0.091827  0.129863  0.000000      4.000000

 SYSTEM =  unknown system
 POSCAR =  FCC Cu

 Startparameter for this run:
   NWRITE =      2    write-flag & timer
   PREC   = normal    normal or accurate (medium, high low for compatibility)
   ISTART =      0    job   : 0-new  1-cont  2-samecut
   ICHARG =      2    charge: 1-file 2-atom 10-const
   ISPIN  =      2    spin polarized calculation?
   LNONCOLLINEAR =      F non collinear calculations
   LSORBIT =      F    spin-orbit coupling
   INIWAV =      1    electr: 0-lowe 1-rand  2-diag
   LASPH  =      F    aspherical Exc in radial PAW
 Electronic Relaxation 1
   ENCUT  =  400.0 eV  29.40 Ry    5.42 a.u.   5.92  4.19 32.83*2*pi/ulx,y,z
   ENINI  =  400.0     initial cutoff
   ENAUG  =  587.0 eV  augmentation charge cutoff
   NELM   =     60;   NELMIN=  2; NELMDL= -5     # of ELM steps
   EDIFF  = 0.2E-03   stopping-criterion for ELM
   LREAL  =      F    real-space projection
   NLSPLINE    = F    spline interpolate recip. space projectors
   LCOMPAT=      F    compatible to vasp.4.4
   GGA_COMPAT  = T    GGA compatible to vasp.4.4-vasp.4.6
   LMAXPAW     = -100 max onsite density
   LMAXMIX     =    2 max onsite mixed and CHGCAR
   VOSKOWN=      0    Vosko Wilk Nusair interpolation
   ROPT   =    0.00000
 Ionic relaxation
   EDIFFG = -.3E-01   stopping-criterion for IOM
   NSW    =    800    number of steps for IOM
   NBLOCK =      1;   KBLOCK =    800    inner block; outer block
   IBRION =      2    ionic relax: 0-MD 1-quasi-New 2-CG
   NFREE  =      1    steps in history (QN), initial steepest desc. (CG)
   ISIF   =      2    stress and relaxation
   IWAVPR =     11    prediction:  0-non 1-charg 2-wave 3-comb
   ISYM   =      1    0-nonsym 1-usesym 2-fastsym
   LCORR  =      T    Harris-Foulkes like correction to forces

   POTIM  = 0.5000    time-step for ionic-motion
   TEIN   =    0.0    initial temperature
   TEBEG  =    0.0;   TEEND  =   0.0 temperature during run
   SMASS  =  -3.00    Nose mass-parameter (am)
   estimated Nose-frequenzy (Omega)   =  0.10E-29 period in steps = 0.13E+47 mass=  -0.301E-27a.u.
   SCALEE = 1.0000    scale energy and forces
   NPACO  =    256;   APACO  = 10.0  distance and # of slots for P.C.
   PSTRESS=    0.0 pullay stress

  Mass of Ions in am
   POMASS =  63.55
  Ionic Valenz
   ZVAL   =  11.00
  Atomic Wigner-Seitz radii
  virtual crystal weights
   VCA    =   1.00
   NELECT =      55.0000    total number of electrons
   NUPDOWN=      -1.0000    fix difference up-down

 DOS related values:
   EMIN   =  10.00;   EMAX   =-10.00  energy-range for DOS
   EFERMI =   0.00
   ISMEAR =     1;   SIGMA  =   0.20  broadening in eV -4-tet -1-fermi 0-gaus

 Electronic relaxation 2 (details)
   IALGO  =     38    algorithm
   LDIAG  =      T    sub-space diagonalisation (order eigenvalues)
   LSUBROT=      F    optimize rotation matrix (better conditioning)
   TURBO    =      0    0=normal 1=particle mesh
   IRESTART =      0    0=no restart 2=restart with 2 vectors
   NREBOOT  =      0    no. of reboots
   NMIN     =      0    reboot dimension
   EREF     =   0.00    reference energy to select bands
   IMIX   =      4    mixing-type and parameters
     AMIX     =   0.40;   BMIX     =  1.00
     AMIX_MAG =   1.60;   BMIX_MAG =  1.00
     AMIN     =   0.10
     WC   =   100.;   INIMIX=   1;  MIXPRE=   1;  MAXMIX= -45

 Intra band minimization:
   WEIMIN = 0.0010     energy-eigenvalue tresh-hold
   EBREAK =  0.14E-05  absolut break condition
   DEPER  =   0.30     relativ break condition

   TIME   =   0.40     timestep for ELM

  volume/ion in A,a.u.               =      37.52       253.19
  Fermi-wavevector in a.u.,A,eV,Ry     =   1.087567  2.055203 16.092986  1.182801
  Thomas-Fermi vector in A             =   2.223729

 Write flags
   LWAVE        =      F    write WAVECAR
   LDOWNSAMPLE  =      F    k-point downsampling of WAVECAR
   LCHARG       =      F    write CHGCAR
   LVTOT        =      F    write LOCPOT, total local potential
   LVHAR        =      F    write LOCPOT, Hartree potential only
   LELF         =      F    write electronic localiz. function (ELF)
   LORBIT       =      0    0 simple, 1 ext, 2 COOP (PROOUT), +10 PAW based schemes

 Dipole corrections
[...]
 DF pbe
 parameters
 VDW_S6       =    1.0000
 VDW_S8       =    0.7220
 VDW_SR       =    1.2170
 rs18     =    1.0000
 alpha6   =   14.0000
 alpha8   =   16.0000
 k1-k3    =   16.0000    1.3333   -4.0000
 VDW_RADIUS   =   50.2022 A
 VDW_CNRADIUS =   21.1671 A
 Edisp (eV)   -1.50866

 E6    (eV) :    -0.5802
 E8    (eV) :    -0.9285
 % E8        : 61.54

  FORCE on cell =-STRESS in cart. coord.  units (eV):
  Direction    XX          YY          ZZ          XY          YZ          ZX
  Alpha Z    97.46139    97.46139    97.46139
  Ewald   21336.72429 21548.25990-24964.43873     0.00000    -0.00000     0.00000
  Hartree 23194.30699 23339.67901-22030.63416    -0.00000    -0.00000    -0.00000
  E(xc)    -320.94294  -320.74850  -321.43056    -0.00000    -0.00000     0.00000
  Local  -45115.12734-45476.51310 46410.87358    -0.00000    -0.00000     0.00000
  n-local  -114.52220  -110.23079  -115.77966     4.27099     0.00000     0.00000
  augment   471.50228   472.87727   472.60511    -0.00000     0.00000    -0.00000
  Kinetic   448.02608   447.22586   449.21907     4.45278    -0.00000     0.00000
  Fock        0.00000     0.00000     0.00000     0.00000     0.00000     0.00000
  vdW        -1.81817    -1.96543    -0.87093     0.00000     0.00000     0.00000
  Total      -4.38962    -3.95438    -2.99489     0.00000     0.00000     0.00000
  in kB     -37.49018   -33.77300   -25.57831     0.00000     0.00000     0.00000

 VOLUME and BASIS-vectors are now :
  energy-cutoff  :      400.00
  volume of cell :      187.59
      direct lattice vectors                 reciprocal lattice vectors
     3.630000114  0.000000000  0.000000000     0.275482085  0.000000000  0.000000000
     0.000000000  2.566797733  0.000000000     0.000000000  0.389590495  0.000000000
     0.000000000  0.000000000 20.133595000     0.000000000  0.000000000  0.049668229

[...]

 FORCES acting on ions
    electron-ion (+dipol)            ewald-force                    non-local-force                 convergence-correction
   -.477E-13 -.107E-11 0.299E+04   -.621E-07 0.258E-07 -.298E+04   0.000E+00 0.000E+00 -.606E+01   0.225E-11 -.294E-11 0.146E-02
   0.747E-06 -.132E-05 0.163E+04   0.123E-06 -.514E-07 -.163E+04   0.000E+00 0.000E+00 0.105E+01   -.387E-10 0.632E-10 0.287E-03
   -.633E-13 0.601E-13 0.101E-02   -.122E-06 0.513E-07 -.785E-07   0.000E+00 0.000E+00 0.101E-02   0.463E-11 -.584E-11 -.124E-02
   0.747E-06 -.132E-05 -.163E+04   0.123E-06 -.514E-07 0.163E+04   0.000E+00 0.000E+00 -.105E+01   -.438E-10 0.721E-10 -.134E-02
   -.415E-13 0.300E-12 -.299E+04   -.621E-07 0.258E-07 0.298E+04   0.000E+00 0.000E+00 0.606E+01   0.212E-11 -.291E-11 -.243E-02
   0.149E-05 -.263E-05 0.328E-02   -.167E-13 -.185E-13 -.455E-12   0.000E+00 0.000E+00 0.164E-02   -.735E-10 0.124E-09 -.326E-02

 POSITION                                       TOTAL-FORCE (eV/Angst)
      0.00000      0.00000      0.00000         0.000000      0.000000      0.732669
      1.81500      1.28340      1.28340         0.000000      0.000000     -0.417971
      0.00000      0.00000      2.56680         0.000000      0.000000      0.000448
      1.81500      1.28340      3.85020         0.000000      0.000000      0.416496
      0.00000      0.00000      5.13360         0.000000      0.000000     -0.731642
    total drift:                                0.000001     -0.000003      0.001657

  FREE ENERGIE OF THE ION-ELECTRON SYSTEM (eV)
  free  energy   TOTEN  =       -18.65918870 eV

  energy  without entropy=      -18.65245309  energy(sigma->0) =      -18.65694349

 stress matrix after NEB project (eV)
     -4.38962      0.00000      0.00000
      0.00000     -3.95438      0.00000
      0.00000      0.00000     -2.99489
  FORCES: max atom, RMS     0.731642    0.376502
  FORCE total and by dimension    0.841885    0.731642
  Stress total and by dimension    6.623839    4.389617

[...]

         DFTD3 V3.0 Rev 1
 Edisp (eV)   -1.51126

[...]

 d Force = 0.2955426E-01[ 0.249E-01, 0.342E-01]  d Energy = 0.2944782E-01 0.106E-03
 d Force =-0.7239729E+02[-0.722E+02,-0.726E+02]  d Ewald  =-0.7240370E+02 0.641E-02

 stress matrix after NEB project (eV)
     -3.41992      0.00000      0.00000
      0.00000     -3.10335      0.00000
      0.00000      0.00000     -2.00555
  FORCES: max atom, RMS     0.557009    0.275911
  FORCE total and by dimension    0.616957    0.557009
  Stress total and by dimension    5.034765    3.419918
 Steepest descent step on ions:
 trial-energy change:   -0.029448  1 .order   -0.029554   -0.034193   -0.024916
  (g-gl).g = 0.342E-01      g.g   = 0.342E-01  gl.gl    = 0.000E+00
 g(Force)  = 0.342E-01   g(Stress)= 0.000E+00 ortho     = 0.000E+00
 gamma     =   0.00000
 trial     =   1.00000
 opt step  =   3.68564  (harmonic =   3.68564) maximal distance =0.07405503
 next E    =   -18.722200   (d E  =  -0.06301)

[...]

 d Force = 0.2494416E-01[-0.170E-01, 0.669E-01]  d Energy = 0.2685931E-01-0.192E-02
 d Force =-0.1923431E+03[-0.191E+03,-0.194E+03]  d Ewald  =-0.1924762E+03 0.133E+00

[...]

 d Force = 0.1364317E-02[-0.725E-03, 0.345E-02]  d Energy = 0.1446537E-02-0.822E-04
 d Force = 0.3875730E+02[ 0.388E+02, 0.387E+02]  d Ewald  = 0.3875845E+02-0.115E-02

[...]

 d Force = 0.6900255E-05[-0.112E-03, 0.126E-03]  d Energy =-0.1192004E-03 0.126E-03
 d Force =-0.6735016E+01[-0.673E+01,-0.674E+01]  d Ewald  =-0.6735022E+01 0.596E-05

[...]

 d Force =-0.1078590E-04[-0.743E-04, 0.527E-04]  d Energy =-0.6082945E-05-0.470E-05
 d Force = 0.3171371E+01[ 0.317E+01, 0.317E+01]  d Ewald  = 0.3171371E+01-0.623E-06

[...]

 d Force = 0.2754206E-05[-0.379E-04, 0.435E-04]  d Energy = 0.9022656E-05-0.627E-05
 d Force =-0.1855151E+01[-0.185E+01,-0.186E+01]  d Ewald  =-0.1855151E+01 0.125E-06

[...]

 stress matrix after NEB project (eV)
     -3.03101      0.00000      0.00000
      0.00000     -3.02004      0.00000
      0.00000      0.00000     -1.43167
  FORCES: max atom, RMS     0.131637    0.083528
  FORCE total and by dimension    0.186773    0.131637
  Stress total and by dimension    4.511912    3.031012
 Conjugate gradient step on ions:
 trial-energy change:   -0.003793  1 .order   -0.003584   -0.004127   -0.003041
  (g-gl).g = 0.232E-02      g.g   = 0.283E-02  gl.gl    = 0.342E-01
 g(Force)  = 0.283E-02   g(Stress)= 0.000E+00 ortho     = 0.512E-03
 gamma     =   0.06778
 trial     =   1.44078
 opt step  =   5.47872  (harmonic =   5.47872) maximal distance =0.00000000
 next E    =   -18.724679   (d E  =  -0.00785)

[...]

 d Force =-0.6868528E-02[-0.215E-01, 0.779E-02]  d Energy =-0.5874113E-02-0.994E-03
 d Force =-0.2231322E+03[-0.223E+03,-0.223E+03]  d Ewald  =-0.2231421E+03 0.985E-02

[...]

 d Force = 0.7634751E-02[-0.536E-03, 0.158E-01]  d Energy = 0.6838276E-02 0.796E-03
 d Force = 0.1638859E+03[ 0.164E+03, 0.164E+03]  d Ewald  = 0.1638898E+03-0.390E-02

[...]

 stress matrix after NEB project (eV)
     -2.36147      0.00000      0.00000
      0.00000     -2.54633      0.00000
      0.00000      0.00000     -0.28982
  FORCES: max atom, RMS     0.055839    0.025356
  FORCE total and by dimension    0.056698    0.055839
  Stress total and by dimension    3.484868    2.546326
 Conjugate gradient step on ions:
 trial-energy change:   -0.003458  1 .order   -0.002929   -0.004725   -0.001133
  (g-gl).g = 0.169E-02      g.g   = 0.171E-02  gl.gl    = 0.283E-02
 g(Force)  = 0.171E-02   g(Stress)= 0.000E+00 ortho     = 0.904E-04
 gamma     =   0.59840
 trial     =   2.67747
 opt step  =   3.52155  (harmonic =   3.52155) maximal distance =0.00149035
 next E    =   -18.731052   (d E  =  -0.00311)

[...]

 eigenvalue-minimisations  :   928
 total energy-change (2. order) :-0.8825303E-03  (-0.1037017E-02)
 number of electron      55.0000456 magnetization       0.0000014
 augmentation part       35.1465699 magnetization       0.0000011

 Broyden mixing:
  rms(total) = 0.85943E-02    rms(broyden)= 0.85900E-02
  rms(prec ) = 0.97803E-02
  weight for this iteration     100.00

 eigenvalues of (default mixing * dielectric matrix)
  average eigenvalue GAMMA=   0.5226
  0.5226

[...]

--------------------------------------- Iteration     14(   3)  ---------------------------------------

 eigenvalue-minimisations  :   544
 total energy-change (2. order) : 0.8778036E-04  (-0.9085261E-04)
 number of electron      55.0000456 magnetization       0.0000014
 augmentation part       35.1465699 magnetization       0.0000011

 Free energy of the ion-electron system (eV)
  alpha Z        PSCENC =        97.46139379
  Ewald energy   TEWEN  =     18500.66907776
  -Hartree energ DENC   =    -25076.62291321
  -exchange      EXHF   =         0.00000000
  -V(xc)+E(xc)   XCENC  =       222.47589010
  PAW double counting   =      6510.79603948    -7048.54596643
  entropy T*S    EENTRO =        -0.00865707
  eigenvalues    EBANDS =      -178.21089139
  atomic energy  EATOM  =      6954.78820100
  Solvation  Ediel_sol  =         0.00000000
  free energy    TOTEN  =       -17.19782597 eV

  energy without entropy =      -17.18916890  energy(sigma->0) =      -17.19494028

 average (electrostatic) potential at core
  the test charge radii are     0.9430
  (the norm of the test charge is              1.0000)
       1 -71.1770       2 -71.7103       3 -71.8274       4 -71.7116       5 -71.2582

 E-fermi :  -0.8217     XC(G=0):  -4.9683     alpha+bet : -4.2257

 Fermi energy:        -0.8216852450

[...]

 k-point     4 :       0.3333    0.3333    0.0000
  band No.  band energies     occupation
      1      -5.9043      1.00000
      2      -4.7649      1.00000
      3      -4.7376      1.00000
      4      -4.4164      1.00000
      5      -4.3444      1.00000
      6      -4.1027      1.00000
      7      -3.9011      1.00000
      8      -3.7870      1.00000
      9      -3.6032      1.00000
     10      -3.5552      1.00000
     11      -3.4824      1.00000
     12      -3.2978      1.00000
     13      -3.2217      1.00000
     14      -3.1528      1.00000
     15      -3.1039      1.00000
     16      -2.7174      1.00000
     17      -2.6179      1.00000
     18      -2.5863      1.00000
     19      -2.4815      1.00000
     20      -2.4225      1.00000
     21      -2.2891      1.00000
     22      -2.1998      1.00000
     23      -2.1884      1.00000
     24      -2.0613      1.00000
     25      -2.0131      1.00000
     26      -1.9686      1.00000
     27      -0.9229      0.87346
     28       0.5807     -0.00000
     29       1.3898     -0.00000
     30       2.4882     -0.00000
     31       3.8710     -0.00000
     32       4.6438      0.00000
     33       5.3389      0.00000
     34       6.4516      0.00000
     35       6.5876      0.00000
     36       7.6001      0.00000
 Fermi energy:        -0.8216852450

 spin component 2

[...]

 k-point     4 :       0.3333    0.3333    0.0000
  band No.  band energies     occupation
      1      -5.9043      1.00000
      2      -4.7649      1.00000
      3      -4.7376      1.00000
      4      -4.4164      1.00000
      5      -4.3444      1.00000
      6      -4.1027      1.00000
      7      -3.9011      1.00000
      8      -3.7870      1.00000
      9      -3.6032      1.00000
     10      -3.5552      1.00000
     11      -3.4824      1.00000
     12      -3.2978      1.00000
     13      -3.2217      1.00000
     14      -3.1528      1.00000
     15      -3.1039      1.00000
     16      -2.7174      1.00000
     17      -2.6179      1.00000
     18      -2.5863      1.00000
     19      -2.4815      1.00000
     20      -2.4225      1.00000
     21      -2.2891      1.00000
     22      -2.1998      1.00000
     23      -2.1884      1.00000
     24      -2.0613      1.00000
     25      -2.0131      1.00000
     26      -1.9686      1.00000
     27      -0.9229      0.87346
     28       0.5807     -0.00000
     29       1.3898     -0.00000
     30       2.4882     -0.00000
     31       3.8710     -0.00000
     32       4.6438      0.00000
     33       5.3389      0.00000
     34       6.4516      0.00000
     35       6.5876      0.00000
     36       7.6001      0.00000

[...]

 soft charge-density along one line, spin component           2
         0         1         2         3         4         5         6         7         8         9
 total charge-density along one line

------------------------ aborting loop because EDIFF is reached ----------------------------------------

 DIPCOR: dipole corrections for dipol
 direction  3 min pos   128,
 dipolmoment           0.000000      0.000000      0.009353 electrons x Angstroem
 Tr[quadrupol]      -108.299566

 energy correction for charged system         0.000000 eV
 dipol+quadrupol energy correction            0.000042 eV
 added-field ion interaction          0.000000 eV  (added to PSCEN)

  *************** adding dipol energy to TOTEN NOW ****************

         DFTD3 V3.0 Rev 1
 Edisp (eV)   -1.53367

 E6    (eV) :    -0.5837
 E8    (eV) :    -0.9500
 % E8        : 61.94

  FORCE on cell =-STRESS in cart. coord.  units (eV):
  Direction    XX          YY          ZZ          XY          YZ          ZX
  Alpha Z    97.46139    97.46139    97.46139
  Ewald   21972.29242 22139.75601-25611.38144     0.00000     0.00000    -0.00000
  Hartree 23800.07633 23919.23141-22643.49156    -0.00000    -0.00000    -0.00000
  E(xc)    -321.12409  -320.97056  -321.67026    -0.00000    -0.00000     0.00000
  Local  -46357.62220-46649.54875 47668.51531     0.00000    -0.00000     0.00000
  n-local  -112.13648  -108.44327  -113.03050     4.44767     0.00000    -0.00000
  augment   471.29276   473.14416   472.89920     0.00000     0.00000     0.00000
  Kinetic   448.38503   447.86667   450.47808     4.41592    -0.00000     0.00000
  Fock        0.00000     0.00000     0.00000     0.00000     0.00000     0.00000
  vdW        -1.88231    -1.96404    -0.87633    -0.00000     0.00000    -0.00000
  Total      -3.25715    -3.46698    -1.09610     0.00000     0.00000     0.00000
  in kB     -27.81818   -29.61025    -9.36144     0.00000     0.00000     0.00000

 VOLUME and BASIS-vectors are now :
  energy-cutoff  :      400.00
  volume of cell :      187.59
      direct lattice vectors                 reciprocal lattice vectors
     3.630000114  0.000000000  0.000000000     0.275482085  0.000000000  0.000000000
     0.000000000  2.566797733  0.000000000     0.000000000  0.389590495  0.000000000
     0.000000000  0.000000000 20.133595000     0.000000000  0.000000000  0.049668229

  length of vectors
     3.630000114  2.566797733 20.133595000     0.275482085  0.389590495  0.049668229

 FORCES acting on ions
    electron-ion (+dipol)            ewald-force                    non-local-force                 convergence-correction
   -.272E-13 0.161E-12 0.303E+04   -.621E-07 0.258E-07 -.302E+04   0.000E+00 0.000E+00 -.608E+01   0.191E-10 -.273E-11 0.687E-01
   0.742E-06 -.131E-05 0.163E+04   0.129E-06 -.542E-07 -.164E+04   0.000E+00 0.000E+00 0.831E+00   -.201E-09 0.178E-09 0.925E-01
   -.538E-13 0.121E-13 0.463E+02   -.122E-06 0.515E-07 -.465E+02   0.000E+00 0.000E+00 0.136E+00   0.478E-09 -.212E-09 0.687E-01
   0.736E-06 -.131E-05 -.171E+04   0.134E-06 -.571E-07 0.171E+04   0.000E+00 0.000E+00 -.160E+01   0.158E-10 -.231E-10 -.524E+00
   -.156E-13 -.940E-13 -.300E+04   -.781E-07 0.340E-07 0.299E+04   0.000E+00 0.000E+00 0.613E+01   -.543E-09 0.257E-09 -.533E+00
   0.148E-05 -.262E-05 0.141E+01   -.167E-13 -.185E-13 0.136E-11   0.000E+00 0.000E+00 -.589E+00   -.231E-09 0.198E-09 -.828E+00

 POSITION                                       TOTAL-FORCE (eV/Angst)
      0.00000      0.00000      0.00000         0.000000      0.000000      0.554239
      1.81500      1.28340      1.28340         0.000000      0.000000     -0.530010
      0.00000      0.00000      2.50019         0.000000      0.000000     -0.012503
      1.81500      1.28340      3.84850         0.000000      0.000000     -0.024656
      0.00000      0.00000      4.94005         0.000000      0.000000      0.012931
    total drift:                                0.000001     -0.000003     -0.003051

  FREE ENERGIE OF THE ION-ELECTRON SYSTEM (eV)
  free  energy   TOTEN  =       -18.73145481 eV

  energy  without entropy=      -18.72279774  energy(sigma->0) =      -18.72856912

 d Force = 0.2159934E-03[ 0.749E-04, 0.357E-03]  d Energy = 0.5276437E-04 0.163E-03
 d Force =-0.3337301E+02[-0.334E+02,-0.334E+02]  d Ewald  =-0.3337302E+02 0.587E-05

 stress matrix after NEB project (eV)
     -3.25715      0.00000      0.00000
      0.00000     -3.46698      0.00000
      0.00000      0.00000     -1.09610
  FORCES: max atom, RMS     0.024656    0.013649
  FORCE total and by dimension    0.030520    0.024656
  Stress total and by dimension    4.881640    3.466978

 reached required accuracy - stopping structural energy minimisation