 vasp.6.3.2 27Jun22 (build Aug 17 2022 15:43:34) complex

 executed on           tv2STDVTST date 2025.02.04  14:27:01

 INCAR:
   ISTART = 0
   ICHARG = 2
   IPIPOL = 3
   IVDW = 11
   ISPIN = 2
   ENCUT = 400
   PREC = Normal
   EDIFF = 2E-04
   GGA = PE
   ISMEAR = 1
   SIGMA = 0.2
   LREAL = .FALSE.
   ISYM = 1
   NSW = 800
   IBRION = 2
   POTIM = 0.5
   ISIF = 2
   EDIFFG = -.03
   NPAR = 4
   LWAVE = .FALSE.
   LCHARG = .FALSE.

 POTCAR:    PAW_PBE Cu 22Jun2005
 POTCAR:    PAW_PBE H 15Jun2001
|           W    W    AA    RRRRR   N    N  II  N    N   GGGG   !!!           |
|           W    W   A  A   R    R  NN   N  II  NN   N  G    G  !!!           |
|           W    W  A    A  R    R  N N  N  II  N N  N  G       !!!           |
|           W WW W  AAAAAA  RRRRR   N  N N  II  N  N N  G  GGG   !            |
|           WW  WW  A    A  R   R   N   NN  II  N   NN  G    G                |
|           W    W  A    A  R    R  N    N  II  N    N   GGGG   !!!           |
|     You use a magnetic or noncollinear calculation, but did not specify     |
|     the initial magnetic moment with the MAGMOM tag. Note that a            |
|     default of 1 will be used for all atoms. This ferromagnetic setup       |
|     may break the symmetry of the crystal, in particular it may rule        |
|     out finding an antiferromagnetic solution. Thence, we recommend         |
|     setting the initial magnetic moment manually or verifying carefully     |
|     that this magnetic setup is desired.                                    |

   TITEL  = PAW_PBE Cu 22Jun2005
   POMASS =   63.546; ZVAL   =   11.000    mass and valenz
   ENMAX  =  295.446; ENMIN  =  221.585 eV

   TITEL  = PAW_PBE H 15Jun2001
   POMASS =    1.000; ZVAL   =    1.000    mass and valenz
   ENMAX  =  250.000; ENMIN  =  200.000 eV

  PAW_PBE Cu 22Jun2005                  :
  PAW_PBE H 15Jun2001                   :

 POSCAR: FCC Cu
  positions in cartesian coordinates
 exchange correlation table for  LEXCH =        8
   RHO(1)=    0.500       N(1)  =     2000
   RHO(2)=  100.500       N(2)  =     4000

 VTST: version 4.2, (08/11/21)

 CHAIN: initializing optimizer

 OPT: Using VASP Conjugate-Gradient optimizer
 CHAIN: Read ICHAIN            0

 POSCAR: FCC Cu
  positions in cartesian coordinates

 ion  position               nearest neighbor table
   1  0.000  0.000  0.000-   2 2.57   2 2.57   2 2.57
   2  0.333  0.333  0.071-   3 2.51   3 2.51   3 2.51   1 2.57   1 2.57   1 2.57
   3  0.667  0.667  0.139-   2 2.51   2 2.51   2 2.51   4 2.53   4 2.53   4 2.53
   4  0.000  0.000  0.208-   5 2.51   5 2.51   5 2.51   3 2.53   3 2.53   3 2.53
   5  0.333  0.333  0.277-   4 2.51   4 2.51   4 2.51   6 2.53   6 2.53   6 2.53
   6  0.667  0.667  0.346-   7 2.51   7 2.51   7 2.51   5 2.53   5 2.53   5 2.53
   7  0.000  0.000  0.414-   8 2.49   8 2.49   8 2.49   6 2.51   6 2.51   6 2.51
   8  0.333  0.333  0.481-  10 1.73   7 2.49   7 2.49   7 2.49
   9  0.667  0.667  0.534-  10 0.75
  10  0.499  0.002  0.534-   9 0.75   8 1.73

  LATTYP: Found a hexagonal cell.
 ALAT       =     2.5667977333
 C/A-ratio  =    11.5593335643

  Lattice vectors:

 A1 = (  -1.2833988667,  -2.2229120434,   0.0000000000)
 A2 = (   2.5667977333,   0.0000000000,   0.0000000000)
 A3 = (   0.0000000000,   0.0000000000,  29.6704711914)

Analysis of symmetry for initial positions (statically):
 Subroutine PRICEL returns:
 Original cell was already a primitive cell.

 Routine SETGRP: Setting up the symmetry group for a
 hexagonal supercell.

 Subroutine GETGRP returns: Found  2 space group operations
 (whereof  2 operations were pure point group operations)
 out of a pool of 24 trial point group operations.

The static configuration has the point symmetry C_1h.

Analysis of symmetry for dynamics (positions and initial velocities):
 Subroutine PRICEL returns:
 Original cell was already a primitive cell.

[...]

The dynamic configuration has the point symmetry C_1h.

Analysis of structural, dynamic, and magnetic symmetry:
 Subroutine PRICEL returns:
 Original cell was already a primitive cell.

 Routine SETGRP: Setting up the symmetry group for a
 hexagonal supercell.

 Subroutine GETGRP returns: Found  2 space group operations
 (whereof  2 operations were pure point group operations)
 out of a pool of 24 trial point group operations.

The overall configuration has the point symmetry C_1h.

 Subroutine INISYM returns: Found  2 space group operations
 (whereof  2 operations are pure point group operations),
 and found     1 'primitive' translations

                                     Primitive cell

  volume of cell :     169.2928

  direct lattice vectors                    reciprocal lattice vectors
     2.566797733  0.000000000  0.000000000     0.389590495 -0.224930177  0.000000000
     1.283398867  2.222912043  0.000000000     0.000000000  0.449860355  0.000000000
     0.000000000  0.000000000 29.670471191     0.000000000  0.000000000  0.033703543

  length of vectors
     2.566797733  2.566797733 29.670471191     0.449860355  0.449860355  0.033703543

  position of ions in fractional coordinates (direct lattice)
     0.000000000  0.000000000  0.000000000
     0.333333333  0.333333333  0.070635264
     0.666666667  0.666666667  0.139085938
     0.000000000  0.000000000  0.208165116
     0.333333333  0.333333333  0.276562395
     0.666666667  0.666666667  0.345560339
     0.000000000  0.000000000  0.414005934
     0.333333333  0.333333333  0.481392695
     0.666666667  0.666666666  0.534259303
     0.498868755  0.002262491  0.534259303

  ion indices of the primitive-cell ions
   primitive index   ion index
                 1           1
                 2           2
                 3           3
                 4           4
                 5           5
                 6           6
                 7           7
                 8           8
                 9           9
                10          10

 KPOINTS: Auto-mesh

Automatic generation of k-mesh.
 Grid dimensions read from file:
 generate k-points for:    3    3    1

 Generating k-lattice:

  Cartesian coordinates                     Fractional coordinates (reciprocal lattice)
     0.129863498 -0.074976726  0.000000000     0.333333333  0.000000000  0.000000000
     0.000000000  0.149953452  0.000000000     0.000000000  0.333333333  0.000000000
     0.000000000  0.000000000  0.033703543     0.000000000  0.000000000  1.000000000

  Length of vectors
     0.149953452  0.149953452  0.033703543

  Shift w.r.t. Gamma in fractional coordinates (k-lattice)
     0.000000000  0.000000000  0.000000000

 Subroutine IBZKPT returns following result:

 Found      4 irreducible k-points:

 Following reciprocal coordinates:
            Coordinates               Weight
  0.000000  0.000000  0.000000      1.000000
  0.333333  0.000000  0.000000      4.000000
  0.000000  0.333333  0.000000      2.000000
 -0.333333  0.333333  0.000000      2.000000

 Following cartesian coordinates:
            Coordinates               Weight
  0.000000  0.000000  0.000000      1.000000
  0.129863 -0.074977  0.000000      4.000000
  0.000000  0.149953  0.000000      2.000000
 -0.129863  0.224930  0.000000      2.000000

 SYSTEM =  unknown system
 POSCAR =  FCC Cu

 Startparameter for this run:
   NWRITE =      2    write-flag & timer
   PREC   = normal    normal or accurate (medium, high low for compatibility)
   ISTART =      0    job   : 0-new  1-cont  2-samecut
   ICHARG =      2    charge: 1-file 2-atom 10-const
   ISPIN  =      2    spin polarized calculation?
   LNONCOLLINEAR =      F non collinear calculations
   LSORBIT =      F    spin-orbit coupling
   INIWAV =      1    electr: 0-lowe 1-rand  2-diag
   LASPH  =      F    aspherical Exc in radial PAW
 Electronic Relaxation 1
   ENCUT  =  400.0 eV  29.40 Ry    5.42 a.u.   4.19  4.19 48.39*2*pi/ulx,y,z
   ENINI  =  400.0     initial cutoff
   ENAUG  =  587.0 eV  augmentation charge cutoff
   NELM   =     60;   NELMIN=  2; NELMDL= -5     # of ELM steps
   EDIFF  = 0.2E-03   stopping-criterion for ELM
   LREAL  =      F    real-space projection
   NLSPLINE    = F    spline interpolate recip. space projectors
   LCOMPAT=      F    compatible to vasp.4.4
   GGA_COMPAT  = T    GGA compatible to vasp.4.4-vasp.4.6
   LMAXPAW     = -100 max onsite density
   LMAXMIX     =    2 max onsite mixed and CHGCAR
   VOSKOWN=      0    Vosko Wilk Nusair interpolation
   ROPT   =    0.00000   0.00000
 Ionic relaxation
   EDIFFG = -.3E-01   stopping-criterion for IOM
   NSW    =    800    number of steps for IOM
   NBLOCK =      1;   KBLOCK =    800    inner block; outer block
   IBRION =      2    ionic relax: 0-MD 1-quasi-New 2-CG
   NFREE  =      1    steps in history (QN), initial steepest desc. (CG)
   ISIF   =      2    stress and relaxation
   IWAVPR =     11    prediction:  0-non 1-charg 2-wave 3-comb
   ISYM   =      1    0-nonsym 1-usesym 2-fastsym
   LCORR  =      T    Harris-Foulkes like correction to forces

   POTIM  = 0.5000    time-step for ionic-motion
   TEIN   =    0.0    initial temperature
   TEBEG  =    0.0;   TEEND  =   0.0 temperature during run
   SMASS  =  -3.00    Nose mass-parameter (am)
   estimated Nose-frequenzy (Omega)   =  0.10E-29 period in steps = 0.13E+47 mass=  -0.151E-27a.u.
   SCALEE = 1.0000    scale energy and forces
   NPACO  =    256;   APACO  = 10.0  distance and # of slots for P.C.
   PSTRESS=    0.0 pullay stress

  Mass of Ions in am
   POMASS =  63.55  1.00
  Ionic Valenz
   ZVAL   =  11.00  1.00
  Atomic Wigner-Seitz radii
  virtual crystal weights
   VCA    =   1.00  1.00
   NELECT =      90.0000    total number of electrons
   NUPDOWN=      -1.0000    fix difference up-down

 DOS related values:
   EMIN   =  10.00;   EMAX   =-10.00  energy-range for DOS
   EFERMI =   0.00
   ISMEAR =     1;   SIGMA  =   0.20  broadening in eV -4-tet -1-fermi 0-gaus

 Electronic relaxation 2 (details)
   IALGO  =     38    algorithm
   LDIAG  =      T    sub-space diagonalisation (order eigenvalues)
   LSUBROT=      F    optimize rotation matrix (better conditioning)
   TURBO    =      0    0=normal 1=particle mesh
   IRESTART =      0    0=no restart 2=restart with 2 vectors
   NREBOOT  =      0    no. of reboots
   NMIN     =      0    reboot dimension
   EREF     =   0.00    reference energy to select bands
   IMIX   =      4    mixing-type and parameters
     AMIX     =   0.40;   BMIX     =  1.00
     AMIX_MAG =   1.60;   BMIX_MAG =  1.00
     AMIN     =   0.10
     WC   =   100.;   INIMIX=   1;  MIXPRE=   1;  MAXMIX= -45

 Intra band minimization:
   WEIMIN = 0.0010     energy-eigenvalue tresh-hold
   EBREAK =  0.83E-06  absolut break condition
   DEPER  =   0.30     relativ break condition

   TIME   =   0.40     timestep for ELM

  volume/ion in A,a.u.               =      16.93       114.24
  Fermi-wavevector in a.u.,A,eV,Ry     =   1.326202  2.506158 23.930072  1.758811
  Thomas-Fermi vector in A             =   2.455606

 Write flags
   LWAVE        =      F    write WAVECAR
   LDOWNSAMPLE  =      F    k-point downsampling of WAVECAR
   LCHARG       =      F    write CHGCAR
   LVTOT        =      F    write LOCPOT, total local potential
[...]
 opt step  =   3.98125  (harmonic =   2.97277) maximal distance =0.27006805
 next E    =   -40.573521   (d E  =  -0.30658)

[...]

 stress matrix after NEB project (eV)
     -3.50701     -0.00000      0.00000
     -0.00000     -3.62063      0.74208
      0.00000      0.74208      2.86478
  FORCES: max atom, RMS     0.909174    0.389249
  FORCE total and by dimension    1.230914    0.652677
  Stress total and by dimension    5.892062    3.620626
 Conjugate gradient step on ions:
 trial-energy change:   -0.030667  1 .order   -0.029893   -0.067352    0.007567
  (g-gl).g = 0.407E-01      g.g   = 0.633E-01  gl.gl    = 0.817E-01
 g(Force)  = 0.633E-01   g(Stress)= 0.000E+00 ortho     =-0.337E-02
 gamma     =   0.49811
 trial     =   1.09356
 opt step  =   0.98311  (harmonic =   0.98311) maximal distance =0.04221654
 next E    =   -40.786717   (d E  =  -0.03027)

[...]

 d Force = 0.3855933E-03[ 0.698E-05, 0.764E-03]  d Energy = 0.4464862E-03-0.609E-04
 d Force = 0.8531626E+01[ 0.852E+01, 0.854E+01]  d Ewald  = 0.8531627E+01-0.127E-05

[...]

 d Force =-0.3061479E-05[-0.101E-03, 0.944E-04]  d Energy =-0.5927582E-04 0.562E-04
 d Force = 0.8599835E+01[ 0.860E+01, 0.860E+01]  d Ewald  = 0.8599835E+01-0.451E-08

[...]

 d Force =-0.1480433E-04[-0.339E-04, 0.431E-05]  d Energy = 0.2288586E-04-0.377E-04
 d Force = 0.1346340E+01[ 0.135E+01, 0.135E+01]  d Ewald  = 0.1346340E+01-0.728E-10

[...]

 d Force = 0.1151114E-04[-0.707E-05, 0.301E-04]  d Energy =-0.1796523E-04 0.295E-04
 d Force =-0.1194500E+01[-0.119E+01,-0.119E+01]  d Ewald  =-0.1194500E+01-0.124E-09

[...]

 d Force =-0.4558267E-05[-0.583E-04, 0.492E-04]  d Energy = 0.1047877E-03-0.109E-03
 d Force =-0.1556876E+02[-0.156E+02,-0.156E+02]  d Ewald  =-0.1556876E+02 0.321E-07

[...]

 d Force =-0.1301245E-04[-0.576E-04, 0.316E-04]  d Energy =-0.8368197E-04 0.707E-04
 d Force = 0.8445534E+01[ 0.844E+01, 0.845E+01]  d Ewald  = 0.8445534E+01-0.506E-08

[...]

 d Force = 0.1950069E-04[ 0.178E-05, 0.372E-04]  d Energy = 0.3294277E-04-0.134E-04
 d Force =-0.5454123E+01[-0.545E+01,-0.545E+01]  d Ewald  =-0.5454123E+01 0.130E-08

[...]

 d Force = 0.2629857E-04[-0.845E-04, 0.137E-03]  d Energy =-0.4391885E-04 0.702E-04
 d Force =-0.1289614E+02[-0.129E+02,-0.129E+02]  d Ewald  =-0.1289614E+02 0.134E-06

[...]

 d Force = 0.1231767E-04[-0.809E-05, 0.327E-04]  d Energy =-0.1592424E-04 0.282E-04
 d Force = 0.1055427E+01[ 0.106E+01, 0.106E+01]  d Ewald  = 0.1055427E+01-0.364E-10

[...]

 d Force =-0.1011433E-05[-0.607E-05, 0.405E-05]  d Energy =-0.9335470E-05 0.832E-05
 d Force =-0.5277106E+00[-0.528E+00,-0.528E+00]  d Ewald  =-0.5277106E+00-0.146E-10

[...]

 d Force =-0.3658700E-04[-0.744E-04, 0.122E-05]  d Energy = 0.5000087E-04-0.866E-04
 d Force = 0.1740232E+01[ 0.174E+01, 0.174E+01]  d Ewald  = 0.1740232E+01-0.589E-09

[...]

 d Force = 0.1938581E-05[-0.321E-06, 0.420E-05]  d Energy = 0.1672373E-04-0.148E-04
 d Force =-0.3092789E+00[-0.309E+00,-0.309E+00]  d Ewald  =-0.3092789E+00-0.946E-10

[...]

 stress matrix after NEB project (eV)
     -4.29277     -0.00000      0.00000
     -0.00000     -4.60127      0.38176
      0.00000      0.38176     -0.50817
  FORCES: max atom, RMS     0.043217    0.017975
  FORCE total and by dimension    0.056843    0.037964
  Stress total and by dimension    6.336346    4.601267
 Conjugate gradient step on ions:
 trial-energy change:   -0.000120  1 .order   -0.000096   -0.000222    0.000030
  (g-gl).g = 0.912E-04      g.g   = 0.225E-03  gl.gl    = 0.223E-03
 g(Force)  = 0.225E-03   g(Stress)= 0.000E+00 ortho     = 0.237E-04
 gamma     =   0.40916
 trial     =   0.94724
 opt step  =   0.83522  (harmonic =   0.83522) maximal distance =0.00218202
 next E    =   -40.893208   (d E  =  -0.00010)

[...]

 eigenvalue-minimisations  :   664
 total energy-change (2. order) : 0.5352769E-03  (-0.5128801E-03)
 number of electron      89.9999961 magnetization      -0.0000002
 augmentation part       56.1490295 magnetization      -0.0000001

[...]

 eigenvalues of (default mixing * dielectric matrix)
  average eigenvalue GAMMA=   0.5827
  0.9817  0.1837

[...]

 d Force =-0.2781729E-04[-0.592E-04, 0.352E-05]  d Energy =-0.1959719E-04-0.822E-05
 d Force =-0.3346341E+00[-0.335E+00,-0.335E+00]  d Ewald  =-0.3346341E+00-0.146E-09

[...]

 d Force = 0.1674118E-04[-0.223E-04, 0.558E-04]  d Energy = 0.2973486E-04-0.130E-04
 d Force = 0.3158412E+00[ 0.316E+00, 0.316E+00]  d Ewald  = 0.3158412E+00 0.313E-09

[...]

 d Force =-0.5860550E-06[-0.123E-04, 0.112E-04]  d Energy = 0.3541593E-04-0.360E-04
 d Force =-0.1579152E+00[-0.158E+00,-0.158E+00]  d Ewald  =-0.1579152E+00 0.728E-11

[...]

 d Force = 0.3108223E-05[-0.265E-06, 0.648E-05]  d Energy =-0.3913742E-04 0.422E-04
 d Force = 0.8289344E-01[ 0.829E-01, 0.829E-01]  d Ewald  = 0.8289344E-01-0.378E-09

 stress matrix after NEB project (eV)
     -4.36546     -0.00000      0.00000
     -0.00000     -4.67379      0.38082
      0.00000      0.38082     -0.57924
  FORCES: max atom, RMS     0.044489    0.018840
  FORCE total and by dimension    0.059577    0.038539
  Stress total and by dimension    6.444155    4.673795

[...]

 Broyden mixing:
  rms(total) = 0.20672E-02    rms(broyden)= 0.20647E-02
  rms(prec ) = 0.21271E-02
  weight for this iteration     100.00

[...]

--------------------------------------- Iteration     71(   2)  ---------------------------------------

 eigenvalue-minimisations  :   704
 total energy-change (2. order) :-0.3617082E-04  (-0.4203266E-04)
 number of electron      89.9999969 magnetization      -0.0000002
 augmentation part       56.1483735 magnetization      -0.0000001

 Free energy of the ion-electron system (eV)
  alpha Z        PSCENC =       285.34744303
  Ewald energy   TEWEN  =     53177.09743841
  -Hartree energ DENC   =    -64118.56477656
  -exchange      EXHF   =         0.00000000
  -V(xc)+E(xc)   XCENC  =       362.94076988
  PAW double counting   =     10594.18133021   -11456.65889975
  entropy T*S    EENTRO =        -0.02648678
  eigenvalues    EBANDS =       -34.15117142
  atomic energy  EATOM  =     11152.61838693
  Solvation  Ediel_sol  =         0.00000000
  free energy    TOTEN  =       -37.21596604 eV

  energy without entropy =      -37.18947926  energy(sigma->0) =      -37.20713711

 average (electrostatic) potential at core
  the test charge radii are     0.9430  0.5201
  (the norm of the test charge is              1.0000)
       1 -68.0280       2 -68.6015       3 -68.6971       4 -68.6550       5 -68.6542
       6 -68.6996       7 -68.6343       8 -68.2200       9 -35.0405      10 -34.9681

 E-fermi :   2.0940     XC(G=0):  -8.1032     alpha+bet : -7.8182

 Fermi energy:         2.0939989007

[...]

 k-point     4 :      -0.3333    0.3333    0.0000
  band No.  band energies     occupation
      1      -2.7261      1.00000
      2      -1.5291      1.00000
      3      -1.5203      1.00000
      4      -1.5034      1.00000
      5      -1.4521      1.00000
      6      -1.4072      1.00000
      7      -1.3946      1.00000
      8      -1.3596      1.00000
      9      -1.3556      1.00000
     10      -1.3489      1.00000
     11      -1.3345      1.00000
     12      -1.3149      1.00000
     13      -1.2068      1.00000
     14      -1.1190      1.00000
     15      -1.0534      1.00000
     16      -1.0000      1.00000
     17      -0.6936      1.00000
     18      -0.6500      1.00000
     19      -0.6371      1.00000
     20      -0.5777      1.00000
     21      -0.4271      1.00000
     22      -0.3311      1.00000
     23       0.0349      1.00000
     24       0.0772      1.00000
     25       0.2489      1.00000
     26       0.2638      1.00000
     27       0.3454      1.00000
     28       0.3511      1.00000
     29       0.3780      1.00000
     30       0.3897      1.00000
     31       0.3960      1.00000
     32       0.6470      1.00000
     33       0.7440      1.00000
     34       0.8700      1.00000
     35       0.8766      1.00000
     36       0.8977      1.00000
     37       0.9696      1.00000
     38       1.0179      1.00000
     39       1.0187      1.00000
     40       1.0867      1.00000
     41       1.1575      1.00000
     42       5.7950     -0.00000
     43       5.8008     -0.00000
     44       5.8225     -0.00000
     45       5.9684     -0.00000
     46       5.9889     -0.00000
     47       6.2113     -0.00000
     48       6.3675     -0.00000
     49       6.8924     -0.00000
     50       7.1180     -0.00000
     51       7.6485      0.00000
     52       7.7415      0.00000
     53       7.8206      0.00000
     54       8.2135      0.00000
     55       8.2984      0.00000
     56       8.5446      0.00000
     57       9.2118      0.00000
     58       9.6647      0.00000
     59      10.4936      0.00000
     60      10.7382      0.00000
 Fermi energy:         2.0939989007

 spin component 2

[...]

 k-point     4 :      -0.3333    0.3333    0.0000
  band No.  band energies     occupation
      1      -2.7261      1.00000
      2      -1.5291      1.00000
      3      -1.5203      1.00000
      4      -1.5034      1.00000
      5      -1.4521      1.00000
      6      -1.4072      1.00000
      7      -1.3946      1.00000
      8      -1.3596      1.00000
      9      -1.3556      1.00000
     10      -1.3489      1.00000
     11      -1.3345      1.00000
     12      -1.3149      1.00000
     13      -1.2068      1.00000
     14      -1.1190      1.00000
     15      -1.0534      1.00000
     16      -1.0000      1.00000
     17      -0.6936      1.00000
     18      -0.6500      1.00000
     19      -0.6371      1.00000
     20      -0.5777      1.00000
     21      -0.4271      1.00000
     22      -0.3311      1.00000
     23       0.0349      1.00000
     24       0.0772      1.00000
     25       0.2489      1.00000
     26       0.2638      1.00000
     27       0.3454      1.00000
     28       0.3511      1.00000
     29       0.3780      1.00000
     30       0.3897      1.00000
     31       0.3960      1.00000
     32       0.6470      1.00000
     33       0.7440      1.00000
     34       0.8700      1.00000
     35       0.8766      1.00000
     36       0.8977      1.00000
     37       0.9696      1.00000
     38       1.0179      1.00000
     39       1.0187      1.00000
     40       1.0867      1.00000
     41       1.1575      1.00000
     42       5.7950     -0.00000
     43       5.8008     -0.00000
     44       5.8225     -0.00000
     45       5.9684     -0.00000
     46       5.9889     -0.00000
     47       6.2113     -0.00000
     48       6.3675     -0.00000
     49       6.8924     -0.00000
     50       7.1180     -0.00000
     51       7.6485      0.00000
     52       7.7415      0.00000
     53       7.8206      0.00000
     54       8.2135      0.00000
     55       8.2984      0.00000
     56       8.5446      0.00000
     57       9.2118      0.00000
     58       9.6647      0.00000
     59      10.4936      0.00000
     60      10.7382      0.00000

[...]

 soft charge-density along one line, spin component           2
         0         1         2         3         4         5         6         7         8         9
 total charge-density along one line

------------------------ aborting loop because EDIFF is reached ----------------------------------------

         DFTD3 V3.0 Rev 1
 Edisp (eV)   -3.67740

 E6    (eV) :    -1.5362
 E8    (eV) :    -2.1412
 % E8        : 58.23

  FORCE on cell =-STRESS in cart. coord.  units (eV):
  Direction    XX          YY          ZZ          XY          YZ          ZX
  Alpha Z   285.34744   285.34744   285.34744
  Ewald   59064.24446 59053.46687-64940.62735    -0.00000     9.77302    -0.00000
  Hartree 62301.00086 62293.82915-60477.49503     0.00000     2.52452    -0.00000
  E(xc)    -521.00267  -520.96900  -521.09150    -0.00013     0.05914     0.00000
  Local  ************************124348.65210     0.00402    -9.64967    -0.00000
  n-local  -174.62643  -175.00978  -179.98765     3.97324    -0.13556     1.25581
  augment   759.70410   759.90207   753.58389    -0.00381    -0.07543    -0.00000
  Kinetic   742.58534   741.51713   734.86359   -15.34632    -2.13158     2.54112
  Fock        0.00000     0.00000     0.00000     0.00000     0.00000     0.00000
  vdW        -4.40677    -4.32315    -3.79822     0.00000     0.02366     0.00000
  Total      -4.35885    -4.66272    -0.55274    -0.00000     0.38810     0.00000
  in kB     -41.25187   -44.12770    -5.23110    -0.00000     3.67296     0.00000

 VOLUME and BASIS-vectors are now :
  energy-cutoff  :      400.00
  volume of cell :      169.29
      direct lattice vectors                 reciprocal lattice vectors
     2.566797733  0.000000000  0.000000000     0.389590495 -0.224930177  0.000000000
     1.283398867  2.222912043  0.000000000     0.000000000  0.449860355  0.000000000
     0.000000000  0.000000000 29.670471191     0.000000000  0.000000000  0.033703543

  length of vectors
     2.566797733  2.566797733 29.670471191     0.449860355  0.449860355  0.033703543

 FORCES acting on ions
    electron-ion (+dipol)            ewald-force                    non-local-force                 convergence-correction
   -.141E-05 0.714E-01 0.607E+04   0.105E-07 -.789E-01 -.607E+04   0.443E-12 0.197E-01 -.361E+01   -.941E-06 -.109E-01 0.569E-01
   0.334E-05 0.121E+00 0.436E+04   -.268E-07 -.132E+00 -.436E+04   0.830E-12 0.369E-01 0.329E+00   -.270E-05 -.230E-01 0.122E+00
   -.156E-04 0.220E+00 0.267E+04   0.262E-07 -.234E+00 -.267E+04   0.124E-11 0.550E-01 0.615E-01   -.145E-05 -.379E-01 0.185E+00
   0.216E-04 0.130E+00 0.977E+03   0.607E-09 -.145E+00 -.977E+03   0.150E-11 0.666E-01 -.764E+00   -.311E-05 -.474E-01 0.169E+00
   -.733E-05 0.145E+00 -.729E+03   -.272E-07 -.161E+00 0.728E+03   0.133E-11 0.589E-01 0.772E+00   -.228E-05 -.401E-01 0.132E+00
   0.187E-04 -.186E-01 -.241E+04   0.271E-07 0.137E-01 0.241E+04   0.582E-12 0.259E-01 -.800E-01   -.623E-06 -.198E-01 0.767E-01
   -.162E-04 0.162E+00 -.411E+04   0.859E-09 -.181E+00 0.411E+04   0.699E-12 0.311E-01 0.886E-01   -.955E-06 -.107E-01 -.904E-02
   0.146E-04 -.259E+01 -.582E+04   -.111E-07 0.258E+01 0.582E+04   0.185E-12 0.821E-02 0.464E+01   -.382E-06 -.346E-02 -.774E-01
   0.333E-07 0.793E+01 -.510E+03   0.124E-09 -.980E+01 0.506E+03   0.433E-10 0.192E+01 0.433E+01   -.200E-06 -.372E-02 -.151E-01
   -.898E-07 -.629E+01 -.493E+03   -.307E-09 0.813E+01 0.497E+03   -.416E-10 -.185E+01 -.444E+01   -.128E-06 -.252E-02 -.116E-01
   0.177E-04 -.122E+00 -.193E+01   0.219E-12 -.551E-13 -.568E-12   0.842E-11 0.374E+00 0.133E+01   -.128E-04 -.200E+00 0.628E+00

 POSITION                                       TOTAL-FORCE (eV/Angst)
     -0.00000     -0.00038     -0.04349        -0.000000     -0.004036     -0.007566
      1.28340      0.73775      1.95149        -0.000000     -0.002225      0.016419
      2.56680      1.47055      3.97266        -0.000000     -0.002722     -0.009272
     -0.00000     -0.02944      6.00465        -0.000000     -0.001293      0.004253
      1.28340      0.68864      8.01808        -0.000000     -0.002390     -0.001629
      2.56680      1.39844     10.05194        -0.000000     -0.003910     -0.002569
     -0.00000     -0.11293     12.07315        -0.000000     -0.004071     -0.001143
      1.28340      0.59315     14.06999        -0.000000     -0.001991     -0.004479
      2.56680      1.92952     16.16258         0.000000      0.008390      0.009797
      1.28340     -0.00154     16.86685         0.000000      0.014247     -0.003810
    total drift:                                0.000005      0.052236      0.031187

  FREE ENERGIE OF THE ION-ELECTRON SYSTEM (eV)
  free  energy   TOTEN  =       -40.89336847 eV

  energy  without entropy=      -40.86688168  energy(sigma->0) =      -40.88453954

 d Force = 0.8151732E-04[ 0.385E-04, 0.125E-03]  d Energy = 0.1318359E-03-0.503E-04
 d Force = 0.5062838E+01[ 0.506E+01, 0.506E+01]  d Ewald  = 0.5062838E+01-0.618E-09

 stress matrix after NEB project (eV)
     -4.35885     -0.00000      0.00000
     -0.00000     -4.66272      0.38810
      0.00000      0.38810     -0.55274
  FORCES: max atom, RMS     0.016569    0.009577
  FORCE total and by dimension    0.030286    0.016419
  Stress total and by dimension    6.430181    4.662718
 Conjugate gradient step on ions:
 trial-energy change:   -0.000132  1 .order   -0.000082   -0.000125   -0.000039
  (g-gl).g = 0.205E-03      g.g   = 0.171E-03  gl.gl    = 0.225E-03
 g(Force)  = 0.171E-03   g(Stress)= 0.000E+00 ortho     =-0.954E-05
 gamma     =   0.91087
 trial     =   0.76613
 opt step  =   1.10903  (harmonic =   1.10903) maximal distance =0.00284538
 next E    =   -40.893327   (d E  =  -0.00009)

 reached required accuracy - stopping structural energy minimisation