 vasp.6.3.2 27Jun22 (build Aug 17 2022 15:43:34) complex

 executed on           tv2STDVTST date 2025.02.04  13:47:02

 INCAR:
   ISTART = 0
   ICHARG = 2
   IPIPOL = 3
   IVDW = 11
   ISPIN = 2
   ENCUT = 400
   PREC = Normal
   EDIFF = 2E-04
   GGA = PE
   ISMEAR = 1
   SIGMA = 0.2
   LREAL = .FALSE.
   ISYM = 1
   NSW = 800
   IBRION = 2
   POTIM = 0.5
   ISIF = 2
   EDIFFG = -.03
   NPAR = 4
   LWAVE = .FALSE.
   LCHARG = .FALSE.

 POTCAR:    PAW_PBE Cu 22Jun2005
 POTCAR:    PAW_PBE H 15Jun2001
|           W    W    AA    RRRRR   N    N  II  N    N   GGGG   !!!           |
|           W    W   A  A   R    R  NN   N  II  NN   N  G    G  !!!           |
|           W    W  A    A  R    R  N N  N  II  N N  N  G       !!!           |
|           W WW W  AAAAAA  RRRRR   N  N N  II  N  N N  G  GGG   !            |
|           WW  WW  A    A  R   R   N   NN  II  N   NN  G    G                |
|           W    W  A    A  R    R  N    N  II  N    N   GGGG   !!!           |
|     You use a magnetic or noncollinear calculation, but did not specify     |
|     the initial magnetic moment with the MAGMOM tag. Note that a            |
|     default of 1 will be used for all atoms. This ferromagnetic setup       |
|     may break the symmetry of the crystal, in particular it may rule        |
|     out finding an antiferromagnetic solution. Thence, we recommend         |
|     setting the initial magnetic moment manually or verifying carefully     |
|     that this magnetic setup is desired.                                    |

   TITEL  = PAW_PBE Cu 22Jun2005
   POMASS =   63.546; ZVAL   =   11.000    mass and valenz
   ENMAX  =  295.446; ENMIN  =  221.585 eV

   TITEL  = PAW_PBE H 15Jun2001
   POMASS =    1.000; ZVAL   =    1.000    mass and valenz
   ENMAX  =  250.000; ENMIN  =  200.000 eV

  PAW_PBE Cu 22Jun2005                  :
  PAW_PBE H 15Jun2001                   :

 POSCAR: FCC Cu
  positions in cartesian coordinates
 exchange correlation table for  LEXCH =        8
   RHO(1)=    0.500       N(1)  =     2000
   RHO(2)=  100.500       N(2)  =     4000

 VTST: version 4.2, (08/11/21)

 CHAIN: initializing optimizer

 OPT: Using VASP Conjugate-Gradient optimizer
 CHAIN: Read ICHAIN            0

 POSCAR: FCC Cu
  positions in cartesian coordinates

 ion  position               nearest neighbor table
   1  0.000  0.000  0.000-   3 2.51   2 2.57   2 2.57   2 2.57   2 2.57
   2  0.500  0.500  0.054-   4 2.50   3 2.54   3 2.54   3 2.54   3 2.54   1 2.57   1 2.57   1 2.57
                             1 2.57
   3  0.000  0.000  0.105-   1 2.51   2 2.54   2 2.54   2 2.54   2 2.54   5 2.54   4 2.56   4 2.56
                             4 2.56   4 2.56
   4  0.500  0.500  0.158-   2 2.50   6 2.52   5 2.56   5 2.56   5 2.56   5 2.56   3 2.56   3 2.56
                             3 2.56   3 2.56
   5  0.000  0.000  0.211-   3 2.54   6 2.55   6 2.55   6 2.55   6 2.55   7 2.55   4 2.56   4 2.56
                             4 2.56   4 2.56
   6  0.500  0.500  0.263-   8 2.44   4 2.52   5 2.55   5 2.55   5 2.55   5 2.55   7 2.58   7 2.58
                             7 2.58   7 2.58
   7  0.000  0.000  0.317-   8 2.50   8 2.50   8 2.50   8 2.50   5 2.55   6 2.58   6 2.58   6 2.58
                             6 2.58
   8  0.500  0.500  0.365-   6 2.44   7 2.50   7 2.50   7 2.50   7 2.50
   9  1.000  0.000  0.427-  10 0.75
  10  1.000  0.000  0.458-   9 0.75

  LATTYP: Found a simple orthorhombic cell.
 ALAT       =     2.5667977333
 B/A-ratio  =     1.4142135422
 C/A-ratio  =     9.3438571494

  Lattice vectors:

 A1 = (   0.0000000000,  -2.5667977333,   0.0000000000)
 A2 = (   3.6300001144,   0.0000000000,   0.0000000000)
 A3 = (   0.0000000000,   0.0000000000,  23.9837913513)

Analysis of symmetry for initial positions (statically):
 Subroutine PRICEL returns:
 Original cell was already a primitive cell.

 Routine SETGRP: Setting up the symmetry group for a
 simple orthorhombic supercell.

 Subroutine GETGRP returns: Found  4 space group operations
 (whereof  4 operations were pure point group operations)
 out of a pool of  8 trial point group operations.

The static configuration has the point symmetry C_2v.

Analysis of symmetry for dynamics (positions and initial velocities):
 Subroutine PRICEL returns:
 Original cell was already a primitive cell.

[...]

The dynamic configuration has the point symmetry C_2v.

Analysis of structural, dynamic, and magnetic symmetry:
 Subroutine PRICEL returns:
 Original cell was already a primitive cell.

 Routine SETGRP: Setting up the symmetry group for a
 simple orthorhombic supercell.

 Subroutine GETGRP returns: Found  4 space group operations
 (whereof  4 operations were pure point group operations)
 out of a pool of  8 trial point group operations.

The overall configuration has the point symmetry C_2v.

 Subroutine INISYM returns: Found  4 space group operations
 (whereof  4 operations are pure point group operations),
 and found     1 'primitive' translations

                                     Primitive cell

  volume of cell :     223.4684

  direct lattice vectors                    reciprocal lattice vectors
     3.630000114  0.000000000  0.000000000     0.275482085  0.000000000  0.000000000
     0.000000000  2.566797733  0.000000000     0.000000000  0.389590495  0.000000000
     0.000000000  0.000000000 23.983791351     0.000000000  0.000000000  0.041694826

  length of vectors
     3.630000114  2.566797733 23.983791351     0.275482085  0.389590495  0.041694826

  position of ions in fractional coordinates (direct lattice)
     0.000000000  0.000000000  0.000000000
     0.500000000  0.500000000  0.053511090
     0.000000000  0.000000000  0.104681476
     0.500000000  0.500000000  0.157929955
     0.000000000  0.000000000  0.210708991
     0.500000000  0.500000000  0.262890478
     0.000000000  0.000000000  0.317115916
     0.500000000  0.500000000  0.364675901
     1.000000000  0.000000000  0.426907920
     1.000000000  0.000000000  0.458012260

  ion indices of the primitive-cell ions
   primitive index   ion index
                 1           1
                 2           2
                 3           3
                 4           4
                 5           5
                 6           6
                 7           7
                 8           8
                 9           9
                10          10

 KPOINTS: Auto-mesh

Automatic generation of k-mesh.
 Grid dimensions read from file:
 generate k-points for:    3    3    1

 Generating k-lattice:

  Cartesian coordinates                     Fractional coordinates (reciprocal lattice)
     0.091827362  0.000000000  0.000000000     0.333333333  0.000000000  0.000000000
     0.000000000  0.129863498  0.000000000     0.000000000  0.333333333  0.000000000
     0.000000000  0.000000000  0.041694826     0.000000000  0.000000000  1.000000000

  Length of vectors
     0.091827362  0.129863498  0.041694826

  Shift w.r.t. Gamma in fractional coordinates (k-lattice)
     0.000000000  0.000000000  0.000000000

 Subroutine IBZKPT returns following result:

 Found      4 irreducible k-points:

 Following reciprocal coordinates:
            Coordinates               Weight
  0.000000  0.000000  0.000000      1.000000
  0.333333  0.000000  0.000000      2.000000
  0.000000  0.333333  0.000000      2.000000
  0.333333  0.333333  0.000000      4.000000

 Following cartesian coordinates:
            Coordinates               Weight
  0.000000  0.000000  0.000000      1.000000
  0.091827  0.000000  0.000000      2.000000
  0.000000  0.129863  0.000000      2.000000
  0.091827  0.129863  0.000000      4.000000

 SYSTEM =  unknown system
 POSCAR =  FCC Cu

 Startparameter for this run:
   NWRITE =      2    write-flag & timer
   PREC   = normal    normal or accurate (medium, high low for compatibility)
   ISTART =      0    job   : 0-new  1-cont  2-samecut
   ICHARG =      2    charge: 1-file 2-atom 10-const
   ISPIN  =      2    spin polarized calculation?
   LNONCOLLINEAR =      F non collinear calculations
   LSORBIT =      F    spin-orbit coupling
   INIWAV =      1    electr: 0-lowe 1-rand  2-diag
   LASPH  =      F    aspherical Exc in radial PAW
 Electronic Relaxation 1
   ENCUT  =  400.0 eV  29.40 Ry    5.42 a.u.   5.92  4.19 39.11*2*pi/ulx,y,z
   ENINI  =  400.0     initial cutoff
   ENAUG  =  587.0 eV  augmentation charge cutoff
   NELM   =     60;   NELMIN=  2; NELMDL= -5     # of ELM steps
   EDIFF  = 0.2E-03   stopping-criterion for ELM
   LREAL  =      F    real-space projection
   NLSPLINE    = F    spline interpolate recip. space projectors
   LCOMPAT=      F    compatible to vasp.4.4
   GGA_COMPAT  = T    GGA compatible to vasp.4.4-vasp.4.6
   LMAXPAW     = -100 max onsite density
   LMAXMIX     =    2 max onsite mixed and CHGCAR
   VOSKOWN=      0    Vosko Wilk Nusair interpolation
   ROPT   =    0.00000   0.00000
 Ionic relaxation
   EDIFFG = -.3E-01   stopping-criterion for IOM
   NSW    =    800    number of steps for IOM
   NBLOCK =      1;   KBLOCK =    800    inner block; outer block
   IBRION =      2    ionic relax: 0-MD 1-quasi-New 2-CG
   NFREE  =      1    steps in history (QN), initial steepest desc. (CG)
   ISIF   =      2    stress and relaxation
   IWAVPR =     11    prediction:  0-non 1-charg 2-wave 3-comb
   ISYM   =      1    0-nonsym 1-usesym 2-fastsym
   LCORR  =      T    Harris-Foulkes like correction to forces

   POTIM  = 0.5000    time-step for ionic-motion
   TEIN   =    0.0    initial temperature
   TEBEG  =    0.0;   TEEND  =   0.0 temperature during run
   SMASS  =  -3.00    Nose mass-parameter (am)
   estimated Nose-frequenzy (Omega)   =  0.10E-29 period in steps = 0.13E+47 mass=  -0.301E-27a.u.
   SCALEE = 1.0000    scale energy and forces
   NPACO  =    256;   APACO  = 10.0  distance and # of slots for P.C.
   PSTRESS=    0.0 pullay stress

  Mass of Ions in am
   POMASS =  63.55  1.00
  Ionic Valenz
   ZVAL   =  11.00  1.00
  Atomic Wigner-Seitz radii
  virtual crystal weights
   VCA    =   1.00  1.00
   NELECT =      90.0000    total number of electrons
   NUPDOWN=      -1.0000    fix difference up-down

 DOS related values:
   EMIN   =  10.00;   EMAX   =-10.00  energy-range for DOS
   EFERMI =   0.00
   ISMEAR =     1;   SIGMA  =   0.20  broadening in eV -4-tet -1-fermi 0-gaus

 Electronic relaxation 2 (details)
   IALGO  =     38    algorithm
   LDIAG  =      T    sub-space diagonalisation (order eigenvalues)
   LSUBROT=      F    optimize rotation matrix (better conditioning)
   TURBO    =      0    0=normal 1=particle mesh
   IRESTART =      0    0=no restart 2=restart with 2 vectors
   NREBOOT  =      0    no. of reboots
   NMIN     =      0    reboot dimension
   EREF     =   0.00    reference energy to select bands
   IMIX   =      4    mixing-type and parameters
     AMIX     =   0.40;   BMIX     =  1.00
     AMIX_MAG =   1.60;   BMIX_MAG =  1.00
     AMIN     =   0.10
     WC   =   100.;   INIMIX=   1;  MIXPRE=   1;  MAXMIX= -45

 Intra band minimization:
   WEIMIN = 0.0010     energy-eigenvalue tresh-hold
   EBREAK =  0.83E-06  absolut break condition
   DEPER  =   0.30     relativ break condition

   TIME   =   0.40     timestep for ELM

[...]
 d Force = 0.3128749E+02[ 0.313E+02, 0.313E+02]  d Ewald  = 0.3128772E+02-0.229E-03

[...]

 d Force = 0.2762509E-01[ 0.186E-01, 0.367E-01]  d Energy = 0.2660418E-01 0.102E-02
 d Force =-0.1446849E+03[-0.145E+03,-0.145E+03]  d Ewald  =-0.1446946E+03 0.961E-02

 stress matrix after NEB project (eV)
     -4.32572      0.00000      0.00000
      0.00000     -3.86040      0.00000
      0.00000      0.00000     -0.02367
  FORCES: max atom, RMS     0.437831    0.175943
  FORCE total and by dimension    0.556381    0.437831
  Stress total and by dimension    5.797855    4.325720
 Conjugate gradient step on ions:
 trial-energy change:   -0.026604  1 .order   -0.027625   -0.036656   -0.018595
  (g-gl).g = 0.394E-01      g.g   = 0.392E-01  gl.gl    = 0.648E-01
 g(Force)  = 0.392E-01   g(Stress)= 0.000E+00 ortho     =-0.197E-03
 gamma     =   0.60877
 trial     =   0.93714
 opt step  =   1.90196  (harmonic =   1.90196) maximal distance =0.06877267
 next E    =   -38.492613   (d E  =  -0.03720)

[...]

 stress matrix after NEB project (eV)
     -4.48824      0.00000      0.00000
      0.00000     -4.23912      0.00000
      0.00000      0.00000      0.30062
  FORCES: max atom, RMS     0.389329    0.139013
  FORCE total and by dimension    0.439599    0.389329
  Stress total and by dimension    6.181006    4.488243
 Conjugate gradient step on ions:
 trial-energy change:   -0.004529  1 .order   -0.004233   -0.008412   -0.000054
  (g-gl).g = 0.156E-02      g.g   = 0.744E-02  gl.gl    = 0.392E-01
 g(Force)  = 0.744E-02   g(Stress)= 0.000E+00 ortho     = 0.147E-03
 gamma     =   0.03973
 trial     =   1.13011
 opt step  =   1.13745  (harmonic =   1.13745) maximal distance =0.01576632
 next E    =   -38.495900   (d E  =  -0.00423)

[...]

 d Force =-0.4783386E-05[-0.992E-05, 0.353E-06]  d Energy =-0.1217028E-04 0.739E-05
 d Force =-0.3616989E+00[-0.362E+00,-0.362E+00]  d Ewald  =-0.3616989E+00-0.509E-10

[...]

 d Force = 0.3994429E-05[-0.159E-05, 0.958E-05]  d Energy =-0.4436743E-04 0.484E-04
 d Force = 0.3492800E+00[ 0.349E+00, 0.349E+00]  d Ewald  = 0.3492800E+00-0.131E-09

[...]

 d Force =-0.5281937E-02[-0.169E-01, 0.632E-02]  d Energy =-0.5098103E-02-0.184E-03
 d Force =-0.2149796E+03[-0.215E+03,-0.214E+03]  d Ewald  =-0.2149816E+03 0.202E-02

[...]

 d Force = 0.5890793E-02[-0.505E-03, 0.123E-01]  d Energy = 0.5770265E-02 0.121E-03
 d Force = 0.1565065E+03[ 0.156E+03, 0.157E+03]  d Ewald  = 0.1565073E+03-0.777E-03

[...]

 d Force = 0.1855487E-04[-0.330E-04, 0.701E-04]  d Energy =-0.9804604E-04 0.117E-03
 d Force =-0.5538547E+01[-0.554E+01,-0.554E+01]  d Ewald  =-0.5538547E+01-0.205E-06

[...]

 d Force =-0.1366571E-03[-0.194E-02, 0.167E-02]  d Energy = 0.2736635E-04-0.164E-03
 d Force = 0.2206459E+03[ 0.220E+03, 0.221E+03]  d Ewald  = 0.2206459E+03-0.102E-04

[...]

 d Force = 0.5287220E-03[ 0.147E-04, 0.104E-02]  d Energy = 0.6332353E-03-0.105E-03
 d Force =-0.1186071E+03[-0.119E+03,-0.119E+03]  d Ewald  =-0.1186071E+03 0.284E-05

[...]

 eigenvalues of (default mixing * dielectric matrix)
  average eigenvalue GAMMA=   0.7102
  0.7102

[...]

 stress matrix after NEB project (eV)
     -5.02452      0.00000      0.00000
      0.00000     -4.59086      0.00000
      0.00000      0.00000     -0.48716
  FORCES: max atom, RMS     0.046664    0.028942
  FORCE total and by dimension    0.091523    0.046664
  Stress total and by dimension    6.823425    5.024522
 Conjugate gradient step on ions:
 trial-energy change:   -0.000099  1 .order   -0.000321   -0.000602   -0.000040
  (g-gl).g = 0.734E-03      g.g   = 0.847E-03  gl.gl    = 0.287E-02
 g(Force)  = 0.847E-03   g(Stress)= 0.000E+00 ortho     =-0.135E-04
 gamma     =   0.25572
 trial     =   0.71367
 opt step  =   0.76466  (harmonic =   0.76466) maximal distance =0.00409179
 next E    =   -38.543598   (d E  =  -0.00032)

[...]

 d Force =-0.3957646E-04[-0.820E-04, 0.287E-05]  d Energy = 0.5990386E-06-0.402E-04
 d Force = 0.2567549E+01[ 0.257E+01, 0.257E+01]  d Ewald  = 0.2567549E+01-0.517E-09

[...]

 d Force = 0.9683526E-05[-0.599E-04, 0.792E-04]  d Energy =-0.1363736E-04 0.233E-04
 d Force =-0.2480775E+01[-0.248E+01,-0.248E+01]  d Ewald  =-0.2480775E+01 0.342E-09

[...]

 d Force = 0.1194481E-04[-0.605E-05, 0.299E-04]  d Energy = 0.1831105E-04-0.637E-05
 d Force = 0.1240396E+01[ 0.124E+01, 0.124E+01]  d Ewald  = 0.1240396E+01-0.291E-10

[...]

 eigenvalue-minimisations  :   528
 total energy-change (2. order) : 0.1339058E-05  (-0.3051300E-05)
 number of electron      90.0000791 magnetization       0.0000000
 augmentation part       56.1855651 magnetization       0.0000000

[...]

 d Force = 0.3457078E-06[-0.326E-06, 0.102E-05]  d Energy = 0.2599070E-05-0.225E-05
 d Force =-0.2085555E+00[-0.209E+00,-0.209E+00]  d Ewald  =-0.2085555E+00-0.582E-10

 stress matrix after NEB project (eV)
     -4.91713      0.00000      0.00000
      0.00000     -4.46937      0.00000
      0.00000      0.00000     -0.35723
  FORCES: max atom, RMS     0.051765    0.030789
  FORCE total and by dimension    0.097363    0.051765
  Stress total and by dimension    6.654405    4.917132

[...]

 Broyden mixing:
  rms(total) = 0.24007E-02    rms(broyden)= 0.23911E-02
  rms(prec ) = 0.25005E-02
  weight for this iteration     100.00

[...]

--------------------------------------- Iteration     40(   2)  ---------------------------------------

 eigenvalue-minimisations  :  1288
 total energy-change (2. order) :-0.1805146E-03  (-0.1912135E-03)
 number of electron      90.0000791 magnetization       0.0000000
 augmentation part       56.1855158 magnetization       0.0000000

 Free energy of the ion-electron system (eV)
  alpha Z        PSCENC =       216.17040255
  Ewald energy   TEWEN  =     42384.01066543
  -Hartree energ DENC   =    -53110.10239513
  -exchange      EXHF   =         0.00000000
  -V(xc)+E(xc)   XCENC  =       362.11783482
  PAW double counting   =     10524.07616371   -11386.04971386
  entropy T*S    EENTRO =        -0.00419568
  eigenvalues    EBANDS =      -178.16232951
  atomic energy  EATOM  =     11152.61838693
  Solvation  Ediel_sol  =         0.00000000
  free energy    TOTEN  =       -35.32518075 eV

  energy without entropy =      -35.32098507  energy(sigma->0) =      -35.32378219

 average (electrostatic) potential at core
  the test charge radii are     0.9430  0.5201
  (the norm of the test charge is              1.0000)
       1 -69.7332       2 -70.1999       3 -70.3421       4 -70.3556       5 -70.3533
       6 -70.3605       7 -70.2283       8 -69.8113       9 -36.3988      10 -36.3294

 E-fermi :   0.7533     XC(G=0):  -6.6123     alpha+bet : -5.9229

 Fermi energy:         0.7533375578

[...]

 k-point     4 :       0.3333    0.3333    0.0000
  band No.  band energies     occupation
      1      -4.9080      1.00000
      2      -4.7973      1.00000
      3      -4.1109      1.00000
      4      -3.5671      1.00000
      5      -3.4792      1.00000
      6      -3.1981      1.00000
      7      -3.1472      1.00000
      8      -3.0289      1.00000
      9      -3.0049      1.00000
     10      -2.8418      1.00000
     11      -2.8254      1.00000
     12      -2.5917      1.00000
     13      -2.5276      1.00000
     14      -2.3932      1.00000
     15      -2.3334      1.00000
     16      -2.2965      1.00000
     17      -2.2491      1.00000
     18      -2.1825      1.00000
     19      -2.0532      1.00000
     20      -1.9826      1.00000
     21      -1.9665      1.00000
     22      -1.9436      1.00000
     23      -1.9038      1.00000
     24      -1.7623      1.00000
     25      -1.6803      1.00000
     26      -1.5580      1.00000
     27      -1.5522      1.00000
     28      -1.2788      1.00000
     29      -1.2294      1.00000
     30      -1.1707      1.00000
     31      -1.1271      1.00000
     32      -1.0926      1.00000
     33      -1.0149      1.00000
     34      -0.9976      1.00000
     35      -0.8725      1.00000
     36      -0.7801      1.00000
     37      -0.7570      1.00000
     38      -0.6969      1.00000
     39      -0.6757      1.00000
     40      -0.6261      1.00000
     41      -0.5798      1.00000
     42      -0.5389      1.00000
     43      -0.1909      1.00000
     44       0.6611      0.84802
     45       1.6942     -0.00000
     46       2.1144     -0.00000
     47       2.6577     -0.00000
     48       3.9769     -0.00000
     49       4.0683     -0.00000
     50       5.5743     -0.00000
     51       5.6698     -0.00000
     52       6.0690     -0.00000
     53       6.7288      0.00000
     54       7.1570      0.00000
     55       7.9235      0.00000
     56       8.0324      0.00000
     57       8.3364      0.00000
     58       8.9052      0.00000
     59       9.6103      0.00000
     60       9.6709      0.00000
 Fermi energy:         0.7533375578

 spin component 2

[...]

 k-point     4 :       0.3333    0.3333    0.0000
  band No.  band energies     occupation
      1      -4.9080      1.00000
      2      -4.7973      1.00000
      3      -4.1109      1.00000
      4      -3.5671      1.00000
      5      -3.4792      1.00000
      6      -3.1981      1.00000
      7      -3.1472      1.00000
      8      -3.0289      1.00000
      9      -3.0049      1.00000
     10      -2.8418      1.00000
     11      -2.8254      1.00000
     12      -2.5917      1.00000
     13      -2.5276      1.00000
     14      -2.3932      1.00000
     15      -2.3334      1.00000
     16      -2.2965      1.00000
     17      -2.2491      1.00000
     18      -2.1825      1.00000
     19      -2.0532      1.00000
     20      -1.9826      1.00000
     21      -1.9665      1.00000
     22      -1.9436      1.00000
     23      -1.9038      1.00000
     24      -1.7623      1.00000
     25      -1.6803      1.00000
     26      -1.5580      1.00000
     27      -1.5522      1.00000
     28      -1.2788      1.00000
     29      -1.2294      1.00000
     30      -1.1707      1.00000
     31      -1.1271      1.00000
     32      -1.0926      1.00000
     33      -1.0149      1.00000
     34      -0.9976      1.00000
     35      -0.8725      1.00000
     36      -0.7801      1.00000
     37      -0.7570      1.00000
     38      -0.6969      1.00000
     39      -0.6757      1.00000
     40      -0.6261      1.00000
     41      -0.5798      1.00000
     42      -0.5389      1.00000
     43      -0.1909      1.00000
     44       0.6611      0.84802
     45       1.6942     -0.00000
     46       2.1144     -0.00000
     47       2.6577     -0.00000
     48       3.9769     -0.00000
     49       4.0683     -0.00000
     50       5.5743     -0.00000
     51       5.6698     -0.00000
     52       6.0690     -0.00000
     53       6.7288      0.00000
     54       7.1570      0.00000
     55       7.9235      0.00000
     56       8.0324      0.00000
     57       8.3364      0.00000
     58       8.9053      0.00000
     59       9.6103      0.00000
     60       9.6709      0.00000

[...]

 soft charge-density along one line, spin component           2
         0         1         2         3         4         5         6         7         8         9
 total charge-density along one line

------------------------ aborting loop because EDIFF is reached ----------------------------------------

         DFTD3 V3.0 Rev 1
 Edisp (eV)   -3.21854

 E6    (eV) :    -1.3073
 E8    (eV) :    -1.9113
 % E8        : 59.38

  FORCE on cell =-STRESS in cart. coord.  units (eV):
  Direction    XX          YY          ZZ          XY          YZ          ZX
  Alpha Z   216.17040   216.17040   216.17040
  Ewald   48109.97843 48235.14084-53961.11387     0.00000    -0.00000     0.00000
  Hartree 51177.72946 51273.33117-49339.75055    -0.00000    -0.00000    -0.00000
  E(xc)    -520.39737  -520.25231  -520.66663     0.00000     0.00000    -0.00000
  Local  ************************102295.28925     0.00000     0.00000    -0.00000
  n-local  -179.45703  -175.04247  -180.41571     6.86935    -0.00000     0.00000
  augment   755.29532   758.60415   757.69552    -0.00000     0.00000    -0.00000
  Kinetic   738.44397   740.05925   735.52668     6.68257     0.00000    -0.00000
  Fock        0.00000     0.00000     0.00000     0.00000     0.00000     0.00000
  vdW        -3.91516    -3.89391    -2.91522    -0.00000     0.00000    -0.00000
  Total      -4.75806    -4.31197    -0.18012     0.00000     0.00000     0.00000
  in kB     -34.11335   -30.91507    -1.29138     0.00000     0.00000     0.00000

 VOLUME and BASIS-vectors are now :
  energy-cutoff  :      400.00
  volume of cell :      223.47
      direct lattice vectors                 reciprocal lattice vectors
     3.630000114  0.000000000  0.000000000     0.275482085  0.000000000  0.000000000
     0.000000000  2.566797733  0.000000000     0.000000000  0.389590495  0.000000000
     0.000000000  0.000000000 23.983791351     0.000000000  0.000000000  0.041694826

  length of vectors
     3.630000114  2.566797733 23.983791351     0.275482085  0.389590495  0.041694826

 FORCES acting on ions
    electron-ion (+dipol)            ewald-force                    non-local-force                 convergence-correction
   -.418E-13 0.217E-11 0.460E+04   -.742E-07 0.319E-07 -.459E+04   0.000E+00 0.000E+00 -.616E+01   0.927E-10 -.465E-10 -.130E+00
   0.737E-06 -.131E-05 0.352E+04   0.134E-06 -.570E-07 -.352E+04   0.000E+00 0.000E+00 0.151E+01   -.188E-10 0.618E-10 -.196E+00
   -.567E-13 0.768E-12 0.209E+04   -.125E-06 0.525E-07 -.208E+04   0.000E+00 0.000E+00 -.102E+01   -.174E-09 0.811E-10 -.131E+00
   0.753E-06 -.132E-05 0.775E+03   0.129E-06 -.538E-07 -.775E+03   0.000E+00 0.000E+00 0.185E+00   -.187E-11 0.412E-10 0.162E+00
   -.737E-13 -.570E-12 -.584E+03   -.129E-06 0.539E-07 0.584E+03   0.000E+00 0.000E+00 -.134E+00   0.557E-10 -.270E-10 -.182E-01
   0.759E-06 -.132E-05 -.189E+04   0.125E-06 -.524E-07 0.189E+04   0.000E+00 0.000E+00 0.129E+01   0.156E-11 -.208E-10 0.178E+00
   -.482E-13 0.318E-11 -.333E+04   -.134E-06 0.572E-07 0.334E+04   0.000E+00 0.000E+00 -.154E+01   -.851E-12 0.219E-11 0.243E+00
   0.799E-06 -.134E-05 -.442E+04   0.737E-07 -.328E-07 0.441E+04   0.000E+00 0.000E+00 0.670E+01   0.392E-10 -.828E-10 0.109E+00
   0.220E-07 -.149E-07 -.378E+03   0.528E-09 0.373E-09 0.373E+03   0.000E+00 0.000E+00 0.490E+01   -.218E-11 0.160E-11 -.869E-02
   0.239E-07 -.152E-07 -.374E+03   0.173E-09 0.737E-10 0.379E+03   0.000E+00 0.000E+00 -.488E+01   -.505E-11 0.307E-11 -.234E-02
   0.309E-05 -.533E-05 -.105E+01   0.318E-13 0.674E-13 -.284E-12   0.000E+00 0.000E+00 0.847E+00   -.132E-10 0.138E-10 0.205E+00

 POSITION                                       TOTAL-FORCE (eV/Angst)
      0.00000      0.00000      0.00828         0.000000      0.000000     -0.006591
      1.81500      1.28340      1.14586         0.000000      0.000000     -0.013676
      0.00000      0.00000      2.44258         0.000000      0.000000     -0.001268
      1.81500      1.28340      3.68759         0.000000      0.000000      0.008781
      0.00000      0.00000      4.95519         0.000000      0.000000     -0.015012
      1.81500      1.28340      6.19801         0.000000      0.000000      0.007779
      0.00000      0.00000      7.49957         0.000000      0.000000      0.007246
      1.81500      1.28340      8.62678         0.000000      0.000000      0.004346
      3.63000      0.00000     10.59672         0.000000      0.000000      0.003813
      3.63000      0.00000     11.35564         0.000000      0.000000      0.004583
    total drift:                                0.000003     -0.000005      0.001344

  FREE ENERGIE OF THE ION-ELECTRON SYSTEM (eV)
  free  energy   TOTEN  =       -38.54371608 eV

  energy  without entropy=      -38.53952040  energy(sigma->0) =      -38.54231752

 d Force = 0.2297891E-03[ 0.105E-03, 0.354E-03]  d Energy = 0.3335767E-03-0.104E-03
 d Force = 0.2130402E+02[ 0.213E+02, 0.213E+02]  d Ewald  = 0.2130402E+02 0.712E-06

 stress matrix after NEB project (eV)
     -4.75806      0.00000      0.00000
      0.00000     -4.31197      0.00000
      0.00000      0.00000     -0.18012
  FORCES: max atom, RMS     0.015012    0.008378
  FORCE total and by dimension    0.026495    0.015012
  Stress total and by dimension    6.423757    4.758060
 Conjugate gradient step on ions:
 trial-energy change:   -0.000334  1 .order   -0.000230   -0.000354   -0.000105
  (g-gl).g = 0.385E-03      g.g   = 0.457E-03  gl.gl    = 0.847E-03
 g(Force)  = 0.457E-03   g(Stress)= 0.000E+00 ortho     = 0.787E-04
 gamma     =   0.45421
 trial     =   0.71812
 opt step  =   1.02281  (harmonic =   1.02281) maximal distance =0.00286241
 next E    =   -38.543635   (d E  =  -0.00025)

 reached required accuracy - stopping structural energy minimisation