 vasp.6.3.2 27Jun22 (build Aug 17 2022 15:43:34) complex

 executed on           tv2STDVTST date 2025.02.06  09:16:11

 INCAR:
   ISTART = 0
   ICHARG = 2
   IPIPOL = 3
   IVDW = 11
   ISPIN = 2
   ENCUT = 400
   PREC = Normal
   EDIFF = 2E-04
   GGA = PE
   ISMEAR = 1
   SIGMA = 0.2
   LREAL = .FALSE.
   ISYM = 1
   NSW = 800
   IBRION = 2
   POTIM = 0.5
   ISIF = 2
   EDIFFG = -.03
   NPAR = 4
   LWAVE = .FALSE.
   LCHARG = .FALSE.

 POTCAR:    PAW_PBE Cu 22Jun2005
 POTCAR:    PAW_PBE H 15Jun2001
|           W    W    AA    RRRRR   N    N  II  N    N   GGGG   !!!           |
|           W    W   A  A   R    R  NN   N  II  NN   N  G    G  !!!           |
|           W    W  A    A  R    R  N N  N  II  N N  N  G       !!!           |
|           W WW W  AAAAAA  RRRRR   N  N N  II  N  N N  G  GGG   !            |
|           WW  WW  A    A  R   R   N   NN  II  N   NN  G    G                |
|           W    W  A    A  R    R  N    N  II  N    N   GGGG   !!!           |
|     You use a magnetic or noncollinear calculation, but did not specify     |
|     the initial magnetic moment with the MAGMOM tag. Note that a            |
|     default of 1 will be used for all atoms. This ferromagnetic setup       |
|     may break the symmetry of the crystal, in particular it may rule        |
|     out finding an antiferromagnetic solution. Thence, we recommend         |
|     setting the initial magnetic moment manually or verifying carefully     |
|     that this magnetic setup is desired.                                    |

   TITEL  = PAW_PBE Cu 22Jun2005
   POMASS =   63.546; ZVAL   =   11.000    mass and valenz
   ENMAX  =  295.446; ENMIN  =  221.585 eV

   TITEL  = PAW_PBE H 15Jun2001
   POMASS =    1.000; ZVAL   =    1.000    mass and valenz
   ENMAX  =  250.000; ENMIN  =  200.000 eV

  PAW_PBE Cu 22Jun2005                  :
  PAW_PBE H 15Jun2001                   :

 POSCAR: FCC Cu
  positions in cartesian coordinates
 exchange correlation table for  LEXCH =        8
   RHO(1)=    0.500       N(1)  =     2000
   RHO(2)=  100.500       N(2)  =     4000

 VTST: version 4.2, (08/11/21)

 CHAIN: initializing optimizer

 OPT: Using VASP Conjugate-Gradient optimizer
 CHAIN: Read ICHAIN            0

 POSCAR: FCC Cu
  positions in cartesian coordinates

 ion  position               nearest neighbor table
   1  0.000  0.000  0.000-  19 2.57  28 2.57  21 2.57  34 2.57  10 2.57  12 2.57  16 2.57  18 2.57

   2  0.000  0.333  0.000-  19 2.57  29 2.57  20 2.57  35 2.57  10 2.57  11 2.57  16 2.57  17 2.57

[...]

  19  0.000  0.167  0.066-   1 2.57   2 2.57  10 2.57  16 2.57  28 2.57  29 2.57  34 2.57  35 2.57
                            37 2.57  38 2.57  46 2.57  52 2.57
  20  0.000  0.500  0.066-  11 2.57   2 2.57  17 2.57   3 2.57  29 2.57  35 2.57  30 2.57  36 2.57
                            47 2.57  38 2.57  53 2.57  39 2.57
  21  0.000  0.833  0.066-  12 2.57   3 2.57   1 2.57  18 2.57  30 2.57  28 2.57  36 2.57  34 2.57
                            48 2.57  39 2.57  37 2.57  54 2.57
  22  0.333  0.167  0.066-   4 2.57   5 2.57  10 2.57  13 2.57  28 2.57  29 2.57  31 2.57  32 2.57
                            40 2.57  41 2.57  46 2.57  49 2.57
  23  0.333  0.500  0.066-  11 2.57   5 2.57  14 2.57   6 2.57  29 2.57  32 2.57  30 2.57  33 2.57
                            47 2.57  41 2.57  50 2.57  42 2.57
  24  0.333  0.833  0.066-  12 2.57   6 2.57  15 2.57   4 2.57  30 2.57  33 2.57  28 2.57  31 2.57
                            48 2.57  42 2.57  51 2.57  40 2.57
  25  0.667  0.167  0.066-   7 2.57   8 2.57  16 2.57  13 2.57  34 2.57  35 2.57  31 2.57  32 2.57
                            43 2.57  44 2.57  52 2.57  49 2.57
  26  0.667  0.500  0.066-   8 2.57  17 2.57  14 2.57   9 2.57  35 2.57  32 2.57  36 2.57  33 2.57
                            44 2.57  53 2.57  50 2.57  45 2.57
  27  0.667  0.833  0.066-   9 2.57  18 2.57   7 2.57  15 2.57  36 2.57  34 2.57  33 2.57  31 2.57
                            45 2.57  54 2.57  43 2.57  51 2.57
  28  0.167  0.000  0.066-   1 2.57   4 2.57  10 2.57  12 2.57  19 2.57  22 2.57  21 2.57  24 2.57
                            37 2.57  40 2.57  46 2.57  48 2.57
  29  0.167  0.333  0.066-   2 2.57   5 2.57  10 2.57  11 2.57  19 2.57  22 2.57  20 2.57  23 2.57
                            38 2.57  41 2.57  46 2.57  47 2.57
  30  0.167  0.667  0.066-   3 2.57   6 2.57  12 2.57  11 2.57  21 2.57  24 2.57  23 2.57  20 2.57
                            39 2.57  42 2.57  48 2.57  47 2.57
  31  0.500  0.000  0.066-  13 2.57   4 2.57  15 2.57   7 2.57  22 2.57  24 2.57  25 2.57  27 2.57
                            49 2.57  40 2.57  51 2.57  43 2.57
  32  0.500  0.333  0.066-  13 2.57   5 2.57  14 2.57   8 2.57  22 2.57  23 2.57  25 2.57  26 2.57
                            49 2.57  41 2.57  50 2.57  44 2.57
  33  0.500  0.667  0.066-   6 2.57  15 2.57  14 2.57   9 2.57  24 2.57  23 2.57  27 2.57  26 2.57
                            42 2.57  51 2.57  50 2.57  45 2.57
  34  0.833  0.000  0.066-  16 2.57   7 2.57   1 2.57  18 2.57  25 2.57  19 2.57  27 2.57  21 2.57
                            52 2.57  43 2.57  37 2.57  54 2.57
  35  0.833  0.333  0.066-  16 2.57   8 2.57  17 2.57   2 2.57  25 2.57  26 2.57  19 2.57  20 2.57
                            52 2.57  44 2.57  53 2.57  38 2.57
  36  0.833  0.667  0.066-   9 2.57  18 2.57   3 2.57  17 2.57  27 2.57  21 2.57  26 2.57  20 2.57
                            45 2.57  54 2.57  39 2.57  53 2.57
  37  0.000  0.000  0.131-  55 2.56  64 2.56  57 2.56  70 2.56  46 2.57  48 2.57  52 2.57  54 2.57
                            19 2.57  28 2.57  21 2.57  34 2.57
  38  0.000  0.333  0.131-  55 2.56  65 2.56  56 2.56  71 2.56  46 2.57  47 2.57  52 2.57  53 2.57
                            19 2.57  29 2.57  20 2.57  35 2.57
  39  0.000  0.667  0.131-  66 2.56  57 2.56  72 2.56  56 2.56  48 2.57  54 2.57  47 2.57  53 2.57
                            30 2.57  21 2.57  36 2.57  20 2.57
  40  0.333  0.000  0.131-  58 2.56  64 2.56  67 2.56  60 2.56  46 2.57  49 2.57  48 2.57  51 2.57
                            22 2.57  28 2.57  31 2.57  24 2.57
  41  0.333  0.333  0.131-  58 2.56  65 2.56  59 2.56  68 2.56  46 2.57  47 2.57  49 2.57  50 2.57
                            22 2.57  29 2.57  23 2.57  32 2.57
  42  0.333  0.667  0.131-  66 2.56  60 2.56  69 2.56  59 2.56  48 2.57  51 2.57  47 2.57  50 2.57
                            30 2.57  24 2.57  33 2.57  23 2.57
  43  0.667  0.000  0.131-  61 2.56  70 2.56  63 2.56  67 2.56  52 2.57  54 2.57  49 2.57  51 2.57
                            25 2.57  34 2.57  27 2.57  31 2.57
  44  0.667  0.333  0.131-  61 2.56  62 2.56  71 2.56  68 2.56  52 2.57  53 2.57  49 2.57  50 2.57
                            25 2.57  26 2.57  35 2.57  32 2.57
  45  0.667  0.667  0.131-  63 2.56  72 2.56  69 2.56  62 2.56  54 2.57  53 2.57  51 2.57  50 2.57
                            27 2.57  36 2.57  33 2.57  26 2.57
  46  0.167  0.167  0.131-  55 2.56  58 2.56  64 2.56  65 2.56  37 2.57  38 2.57  40 2.57  41 2.57
                            19 2.57  22 2.57  28 2.57  29 2.57
  47  0.167  0.500  0.131-  56 2.56  59 2.56  65 2.56  66 2.56  38 2.57  41 2.57  39 2.57  42 2.57
                            20 2.57  23 2.57  29 2.57  30 2.57
  48  0.167  0.833  0.131-  57 2.56  60 2.56  66 2.56  64 2.56  39 2.57  42 2.57  40 2.57  37 2.57
                            21 2.57  24 2.57  30 2.57  28 2.57
  49  0.500  0.167  0.131-  67 2.56  68 2.56  58 2.56  61 2.56  40 2.57  41 2.57  43 2.57  44 2.57
                            31 2.57  32 2.57  22 2.57  25 2.57
  50  0.500  0.500  0.131-  59 2.56  68 2.56  62 2.56  69 2.56  41 2.57  42 2.57  44 2.57  45 2.57
                            23 2.57  32 2.57  26 2.57  33 2.57
  51  0.500  0.833  0.131-  60 2.56  69 2.56  67 2.56  63 2.56  42 2.57  40 2.57  45 2.57  43 2.57
                            24 2.57  33 2.57  31 2.57  27 2.57
  52  0.833  0.167  0.131-  70 2.56  71 2.56  61 2.56  55 2.56  43 2.57  44 2.57  37 2.57  38 2.57
                            34 2.57  35 2.57  25 2.57  19 2.57
  53  0.833  0.500  0.131-  62 2.56  71 2.56  56 2.56  72 2.56  44 2.57  38 2.57  45 2.57  39 2.57
                            26 2.57  35 2.57  20 2.57  36 2.57
  54  0.833  0.833  0.131-  63 2.56  72 2.56  70 2.56  57 2.56  45 2.57  43 2.57  39 2.57  37 2.57
                            27 2.57  36 2.57  34 2.57  21 2.57
  55  0.000  0.167  0.196-  73 2.51  74 2.51  82 2.51  88 2.51  38 2.56  46 2.56  37 2.56  52 2.56
                            64 2.57  65 2.57  70 2.57  71 2.57
  56  0.000  0.500  0.196-  83 2.51  74 2.51  89 2.51  75 2.51  47 2.56  38 2.56  53 2.56  39 2.56
                            65 2.57  71 2.57  66 2.57  72 2.57
  57  0.000  0.833  0.196-  84 2.51  75 2.51  73 2.51  90 2.51  48 2.56  39 2.56  37 2.56  54 2.56
                            66 2.57  64 2.57  72 2.57  70 2.57
  58  0.333  0.167  0.196-  76 2.51  77 2.51  82 2.51  85 2.51  41 2.56  46 2.56  40 2.56  49 2.56
                            64 2.57  65 2.57  67 2.57  68 2.57
  59  0.333  0.500  0.196-  83 2.51  77 2.51  86 2.51  78 2.51  47 2.56  41 2.56  50 2.56  42 2.56
                            65 2.57  68 2.57  66 2.57  69 2.57
  60  0.333  0.833  0.196-  84 2.51  78 2.51  87 2.51  76 2.51  48 2.56  42 2.56  51 2.56  40 2.56
                            66 2.57  69 2.57  64 2.57  67 2.57
  61  0.667  0.167  0.196-  79 2.51  80 2.51  88 2.51  85 2.51  43 2.56  44 2.56  52 2.56  49 2.56
                            70 2.57  71 2.57  67 2.57  68 2.57
  62  0.667  0.500  0.196-  80 2.51  89 2.51  86 2.51  81 2.51  44 2.56  53 2.56  50 2.56  45 2.56
                            71 2.57  68 2.57  72 2.57  69 2.57
  63  0.667  0.833  0.196-  81 2.51  90 2.51  79 2.51  87 2.51  45 2.56  54 2.56  43 2.56  51 2.56
                            72 2.57  70 2.57  69 2.57  67 2.57
  64  0.167  0.000  0.196-  73 2.51  76 2.51  82 2.51  84 2.51  40 2.56  46 2.56  37 2.56  48 2.56
                            55 2.57  58 2.57  57 2.57  60 2.57
  65  0.167  0.333  0.196-  74 2.51  77 2.51  82 2.51  83 2.51  41 2.56  46 2.56  38 2.56  47 2.56
                            55 2.57  58 2.57  56 2.57  59 2.57
  66  0.167  0.667  0.196-  75 2.51  78 2.51  84 2.51  83 2.51  39 2.56  42 2.56  48 2.56  47 2.56
                            57 2.57  60 2.57  59 2.57  56 2.57
  67  0.500  0.000  0.196-  85 2.51  76 2.51  87 2.51  79 2.51  49 2.56  40 2.56  51 2.56  43 2.56
                            58 2.57  60 2.57  61 2.57  63 2.57
  68  0.500  0.333  0.196-  85 2.51  77 2.51  86 2.51  80 2.51  49 2.56  41 2.56  50 2.56  44 2.56
                            58 2.57  59 2.57  61 2.57  62 2.57
  69  0.500  0.667  0.196-  78 2.51  87 2.51  86 2.51  81 2.51  42 2.56  51 2.56  50 2.56  45 2.56
                            60 2.57  59 2.57  63 2.57  62 2.57
  70  0.833  0.000  0.196-  88 2.51  79 2.51  73 2.51  90 2.51  52 2.56  43 2.56  37 2.56  54 2.56
                            61 2.57  55 2.57  63 2.57  57 2.57
  71  0.833  0.333  0.196-  88 2.51  80 2.51  89 2.51  74 2.51  52 2.56  44 2.56  53 2.56  38 2.56
                            61 2.57  62 2.57  55 2.57  56 2.57
[...]
   0.312E-11 -.801E-01 0.558E+04   0.278E-06 0.473E-01 -.558E+04   0.000E+00 0.232E-01 -.358E+01   -.747E-10 0.589E-04 -.377E-01
   -.107E+00 -.176E-05 0.558E+04   0.140E-01 -.229E-06 -.558E+04   0.745E-01 0.000E+00 -.374E+01   -.677E-04 0.102E-09 -.376E-01
   0.119E-01 0.194E-01 0.558E+04   0.415E-01 -.242E-01 -.558E+04   -.481E-01 0.511E-02 -.363E+01   0.147E-03 -.361E-04 -.375E-01
   0.119E-01 -.194E-01 0.558E+04   0.415E-01 0.242E-01 -.558E+04   -.481E-01 -.511E-02 -.363E+01   0.147E-03 0.361E-04 -.375E-01
   0.194E-01 -.119E-01 0.558E+04   -.242E-01 -.415E-01 -.558E+04   0.511E-02 0.481E-01 -.363E+01   -.361E-04 -.147E-03 -.375E-01
   0.801E-01 0.758E-06 0.558E+04   -.473E-01 0.470E-06 -.558E+04   -.232E-01 0.000E+00 -.358E+01   -.589E-04 -.768E-10 -.377E-01
   0.194E-01 0.119E-01 0.558E+04   -.242E-01 0.415E-01 -.558E+04   0.511E-02 -.481E-01 -.363E+01   -.361E-04 0.147E-03 -.375E-01
   -.194E-01 -.119E-01 0.558E+04   0.242E-01 -.415E-01 -.558E+04   -.511E-02 0.481E-01 -.363E+01   0.361E-04 -.147E-03 -.375E-01
   -.801E-01 0.758E-06 0.558E+04   0.473E-01 0.470E-06 -.558E+04   0.232E-01 0.000E+00 -.358E+01   0.589E-04 -.692E-10 -.377E-01
   -.194E-01 0.119E-01 0.558E+04   0.242E-01 0.415E-01 -.558E+04   -.511E-02 -.481E-01 -.363E+01   0.361E-04 0.147E-03 -.375E-01
   -.135E-05 0.107E+00 0.558E+04   -.175E-06 -.140E-01 -.558E+04   0.000E+00 -.745E-01 -.374E+01   0.109E-09 0.677E-04 -.376E-01
   -.135E-05 0.758E-06 0.558E+04   -.175E-06 0.470E-06 -.558E+04   0.000E+00 0.000E+00 -.351E+01   0.100E-09 -.744E-10 -.374E-01
   -.135E-05 -.107E+00 0.558E+04   -.175E-06 0.140E-01 -.558E+04   0.000E+00 0.745E-01 -.374E+01   0.108E-09 -.677E-04 -.376E-01
   0.603E-01 0.603E-01 0.406E+04   -.441E-01 -.441E-01 -.406E+04   -.138E-01 -.138E-01 -.567E+00   -.873E-04 -.873E-04 0.292E-01
   0.169E+00 0.726E-06 0.406E+04   -.176E+00 0.621E-06 -.406E+04   0.763E-02 0.000E+00 -.532E+00   -.179E-03 -.125E-09 0.289E-01
   0.603E-01 -.603E-01 0.406E+04   -.441E-01 0.441E-01 -.406E+04   -.138E-01 0.138E-01 -.567E+00   -.873E-04 0.873E-04 0.292E-01
   0.315E-11 0.169E+00 0.406E+04   0.364E-06 -.176E+00 -.406E+04   0.000E+00 0.763E-02 -.532E+00   -.130E-09 -.179E-03 0.289E-01
   0.302E-11 0.726E-06 0.406E+04   0.364E-06 0.621E-06 -.406E+04   0.000E+00 0.165E-23 -.616E+00   -.129E-09 -.122E-09 0.289E-01
   0.308E-11 -.169E+00 0.406E+04   0.364E-06 0.176E+00 -.406E+04   0.000E+00 -.763E-02 -.532E+00   -.130E-09 0.179E-03 0.289E-01
   -.603E-01 0.603E-01 0.406E+04   0.441E-01 -.441E-01 -.406E+04   0.138E-01 -.138E-01 -.567E+00   0.873E-04 -.873E-04 0.292E-01
   -.169E+00 0.726E-06 0.406E+04   0.176E+00 0.621E-06 -.406E+04   -.763E-02 0.000E+00 -.532E+00   0.179E-03 -.127E-09 0.289E-01
   -.603E-01 -.603E-01 0.406E+04   0.441E-01 0.441E-01 -.406E+04   0.138E-01 0.138E-01 -.567E+00   0.873E-04 0.873E-04 0.292E-01
   0.432E-01 -.173E-05 0.406E+04   0.109E-02 -.303E-06 -.406E+04   -.382E-01 0.000E+00 -.637E+00   -.151E-03 0.149E-09 0.295E-01
   0.143E+00 0.143E+00 0.406E+04   -.113E+00 -.113E+00 -.406E+04   -.254E-01 -.254E-01 -.454E+00   -.168E-03 -.168E-03 0.286E-01
   0.143E+00 -.143E+00 0.406E+04   -.113E+00 0.113E+00 -.406E+04   -.254E-01 0.254E-01 -.454E+00   -.168E-03 0.168E-03 0.286E-01
   -.432E-01 -.173E-05 0.406E+04   -.108E-02 -.303E-06 -.406E+04   0.382E-01 0.000E+00 -.637E+00   0.151E-03 0.149E-09 0.295E-01
   -.143E+00 0.143E+00 0.406E+04   0.113E+00 -.113E+00 -.406E+04   0.254E-01 -.254E-01 -.454E+00   0.168E-03 -.168E-03 0.286E-01
   -.143E+00 -.143E+00 0.406E+04   0.113E+00 0.113E+00 -.406E+04   0.254E-01 0.254E-01 -.454E+00   0.168E-03 0.168E-03 0.286E-01
   -.132E-05 -.173E-05 0.406E+04   -.228E-06 -.303E-06 -.406E+04   0.000E+00 0.132E-22 -.460E+00   0.171E-09 0.141E-09 0.292E-01
   -.132E-05 0.432E-01 0.406E+04   -.228E-06 0.109E-02 -.406E+04   0.000E+00 -.382E-01 -.637E+00   0.162E-09 -.151E-03 0.295E-01
   -.132E-05 -.432E-01 0.406E+04   -.228E-06 -.109E-02 -.406E+04   0.000E+00 0.382E-01 -.637E+00   0.161E-09 0.151E-03 0.295E-01
   -.202E+00 -.173E-05 0.247E+04   0.169E+00 -.331E-06 -.247E+04   0.421E-01 0.000E+00 0.210E-02   -.574E-03 0.162E-09 0.105E+00
   0.378E+00 0.619E-01 0.247E+04   -.326E+00 -.692E-01 -.247E+04   -.520E-01 0.748E-02 -.106E+00   -.422E-03 -.503E-03 0.105E+00
   0.378E+00 -.619E-01 0.247E+04   -.326E+00 0.692E-01 -.247E+04   -.520E-01 -.748E-02 -.106E+00   -.422E-03 0.503E-03 0.105E+00
   0.325E-11 -.173E-05 0.247E+04   0.402E-06 -.331E-06 -.247E+04   0.000E+00 0.265E-22 -.835E-01   -.173E-09 0.202E-09 0.104E+00
   0.321E-11 0.583E-01 0.248E+04   0.402E-06 -.627E-01 -.248E+04   0.000E+00 0.227E-01 -.141E+00   -.165E-09 -.104E-02 0.104E+00
   0.329E-11 -.583E-01 0.248E+04   0.402E-06 0.627E-01 -.248E+04   0.000E+00 -.227E-01 -.141E+00   -.163E-09 0.104E-02 0.104E+00
   0.202E+00 -.173E-05 0.247E+04   -.169E+00 -.331E-06 -.247E+04   -.421E-01 0.000E+00 0.210E-02   0.574E-03 0.161E-09 0.105E+00
   -.378E+00 0.619E-01 0.247E+04   0.326E+00 -.692E-01 -.247E+04   0.520E-01 0.748E-02 -.106E+00   0.422E-03 -.503E-03 0.105E+00
   -.378E+00 -.619E-01 0.247E+04   0.326E+00 0.692E-01 -.247E+04   0.520E-01 -.748E-02 -.106E+00   0.422E-03 0.503E-03 0.105E+00
   0.619E-01 0.378E+00 0.247E+04   -.692E-01 -.326E+00 -.247E+04   0.748E-02 -.520E-01 -.106E+00   -.503E-03 -.422E-03 0.105E+00
   0.583E-01 0.722E-06 0.248E+04   -.627E-01 0.663E-06 -.248E+04   0.227E-01 0.000E+00 -.141E+00   -.104E-02 -.163E-09 0.104E+00
   0.619E-01 -.378E+00 0.247E+04   -.692E-01 0.326E+00 -.247E+04   0.748E-02 0.520E-01 -.106E+00   -.503E-03 0.422E-03 0.105E+00
   -.619E-01 0.378E+00 0.247E+04   0.692E-01 -.326E+00 -.247E+04   -.748E-02 -.520E-01 -.106E+00   0.503E-03 -.422E-03 0.105E+00
   -.583E-01 0.722E-06 0.248E+04   0.627E-01 0.663E-06 -.248E+04   -.227E-01 0.000E+00 -.141E+00   0.104E-02 -.160E-09 0.104E+00
   -.619E-01 -.378E+00 0.247E+04   0.692E-01 0.326E+00 -.247E+04   -.748E-02 0.520E-01 -.106E+00   0.503E-03 0.422E-03 0.105E+00
   -.132E-05 -.202E+00 0.247E+04   -.259E-06 0.169E+00 -.247E+04   0.000E+00 0.421E-01 0.210E-02   0.190E-09 -.574E-03 0.105E+00
   -.132E-05 0.722E-06 0.247E+04   -.259E-06 0.663E-06 -.247E+04   0.000E+00 0.662E-23 -.835E-01   0.196E-09 -.192E-09 0.104E+00
   -.132E-05 0.202E+00 0.247E+04   -.259E-06 -.169E+00 -.247E+04   0.000E+00 -.421E-01 0.210E-02   0.188E-09 0.574E-03 0.105E+00
   0.910E+00 0.910E+00 0.845E+03   -.920E+00 -.920E+00 -.845E+03   0.221E-01 0.221E-01 0.914E-01   -.137E-01 -.137E-01 0.167E+00
   0.992E+00 0.715E-06 0.846E+03   -.995E+00 0.684E-06 -.846E+03   0.123E-01 0.000E+00 0.108E+00   -.115E-01 -.167E-09 0.177E+00
   0.910E+00 -.910E+00 0.845E+03   -.920E+00 0.920E+00 -.845E+03   0.221E-01 -.221E-01 0.914E-01   -.137E-01 0.137E-01 0.167E+00
   0.320E-11 0.992E+00 0.846E+03   0.416E-06 -.995E+00 -.846E+03   0.000E+00 0.123E-01 0.108E+00   -.135E-09 -.115E-01 0.177E+00
   0.323E-11 0.717E-06 0.846E+03   0.416E-06 0.684E-06 -.847E+03   0.000E+00 0.662E-23 0.401E-01   -.128E-09 -.991E-10 0.169E+00
   0.320E-11 -.992E+00 0.846E+03   0.416E-06 0.995E+00 -.846E+03   0.000E+00 -.123E-01 0.108E+00   -.131E-09 0.115E-01 0.177E+00
[...]
   0.317E-11 -.361E+01 -.564E+04   0.286E-06 0.369E+01 0.564E+04   0.000E+00 -.563E-01 0.379E+01   0.162E-09 -.146E-01 0.515E-01
   -.210E+01 0.210E+01 -.565E+04   0.212E+01 -.212E+01 0.564E+04   -.399E-02 0.399E-02 0.368E+01   -.187E-01 0.187E-01 0.492E-01
   -.361E+01 0.744E-06 -.564E+04   0.369E+01 0.489E-06 0.564E+04   -.563E-01 0.000E+00 0.379E+01   -.146E-01 0.439E-09 0.515E-01
   -.210E+01 -.210E+01 -.565E+04   0.212E+01 0.212E+01 0.564E+04   -.399E-02 -.399E-02 0.368E+01   -.187E-01 -.187E-01 0.492E-01
   0.271E+01 -.175E-05 -.565E+04   -.272E+01 -.238E-06 0.564E+04   0.176E-02 0.000E+00 0.367E+01   0.183E-01 -.334E-09 0.188E-01
   0.980E+01 0.980E+01 -.564E+04   -.104E+02 -.104E+02 0.564E+04   0.634E+00 0.634E+00 0.463E+01   0.582E-02 0.582E-02 0.885E-02
   0.980E+01 -.980E+01 -.564E+04   -.104E+02 0.104E+02 0.564E+04   0.634E+00 -.634E+00 0.463E+01   0.582E-02 -.582E-02 0.885E-02
   -.271E+01 -.175E-05 -.565E+04   0.272E+01 -.238E-06 0.564E+04   -.176E-02 0.000E+00 0.367E+01   -.183E-01 -.332E-09 0.188E-01
   -.980E+01 0.980E+01 -.564E+04   0.104E+02 -.104E+02 0.564E+04   -.634E+00 0.634E+00 0.463E+01   -.582E-02 0.582E-02 0.885E-02
   -.980E+01 -.980E+01 -.564E+04   0.104E+02 0.104E+02 0.564E+04   -.634E+00 -.634E+00 0.463E+01   -.582E-02 -.582E-02 0.885E-02
   -.135E-05 -.175E-05 -.565E+04   -.178E-06 -.237E-06 0.564E+04   0.000E+00 0.000E+00 0.377E+01   -.914E-10 -.145E-09 0.326E-01
   -.135E-05 0.271E+01 -.565E+04   -.177E-06 -.272E+01 0.564E+04   0.000E+00 0.176E-02 0.367E+01   -.131E-09 0.183E-01 0.188E-01
   -.135E-05 -.271E+01 -.565E+04   -.177E-06 0.272E+01 0.564E+04   0.000E+00 -.176E-02 0.367E+01   -.131E-09 -.183E-01 0.188E-01
   0.236E-13 0.121E-07 -.556E+03   0.151E-07 0.184E-07 0.558E+03   0.000E+00 -.517E-25 -.194E+01   0.376E-11 0.104E-10 -.824E-02
   -.123E-03 -.136E-03 0.186E+01   -.148E-11 -.644E-13 0.528E-10   0.111E-15 0.111E-15 -.107E+02   0.969E-09 0.618E-09 0.903E+01

 POSITION                                       TOTAL-FORCE (eV/Angst)
      0.00000      0.00000      0.00000         0.018226      0.000000      0.323869
      0.00000      3.63000      0.00000        -0.005370      0.000311      0.310225
      0.00000      7.26000      0.00000        -0.005370     -0.000311      0.310225
      3.63000      0.00000      0.00000         0.000000      0.000000      0.308113
      3.63000      3.63000      0.00000         0.000000      0.009510      0.314667
      3.63000      7.26000      0.00000         0.000000     -0.009510      0.314667
      7.26000      0.00000      0.00000        -0.018226     -0.000000      0.323869
      7.26000      3.63000      0.00000         0.005370      0.000311      0.310225
      7.26000      7.26000      0.00000         0.005370     -0.000311      0.310225
      1.81500      1.81500      0.00000         0.000311     -0.005370      0.310225
      1.81500      5.44500      0.00000         0.009510      0.000000      0.314667
      1.81500      9.07500      0.00000         0.000311      0.005370      0.310225
      5.44500      1.81500      0.00000        -0.000311     -0.005370      0.310225
      5.44500      5.44500      0.00000        -0.009510      0.000000      0.314667
      5.44500      9.07500      0.00000        -0.000311      0.005370      0.310225
      9.07500      1.81500      0.00000         0.000000      0.018226      0.323869
      9.07500      5.44500      0.00000         0.000000     -0.000000      0.308113
      9.07500      9.07500      0.00000         0.000000     -0.018226      0.323869
      0.00000      1.81500      1.81500         0.002312      0.002312     -0.090743
      0.00000      5.44500      1.81500         0.000768     -0.000000     -0.088568
      0.00000      9.07500      1.81500         0.002312     -0.002312     -0.090743
      3.63000      1.81500      1.81500         0.000000      0.000768     -0.088568
      3.63000      5.44500      1.81500         0.000000      0.000000     -0.095726
      3.63000      9.07500      1.81500         0.000000     -0.000768     -0.088568
      7.26000      1.81500      1.81500        -0.002312      0.002312     -0.090743
      7.26000      5.44500      1.81500        -0.000768      0.000000     -0.088568
      7.26000      9.07500      1.81500        -0.002312     -0.002312     -0.090743
      1.81500      0.00000      1.81500         0.005883     -0.000000     -0.098478
      1.81500      3.63000      1.81500         0.004243      0.004243     -0.077871
      1.81500      7.26000      1.81500         0.004243     -0.004243     -0.077871
      5.44500      0.00000      1.81500        -0.005883      0.000000     -0.098478
      5.44500      3.63000      1.81500        -0.004243      0.004243     -0.077871
      5.44500      7.26000      1.81500        -0.004243     -0.004243     -0.077871
      9.07500      0.00000      1.81500         0.000000      0.000000     -0.084208
      9.07500      3.63000      1.81500         0.000000      0.005883     -0.098478
      9.07500      7.26000      1.81500         0.000000     -0.005883     -0.098478
      0.00000      0.00000      3.63477         0.008464      0.000000     -0.182031
      0.00000      3.63000      3.63477         0.000007     -0.000348     -0.189878
      0.00000      7.26000      3.63477         0.000007      0.000348     -0.189878
      3.63000      0.00000      3.63477         0.000000      0.000000     -0.170199
      3.63000      3.63000      3.63477         0.000000      0.017122     -0.199891
      3.63000      7.26000      3.63477         0.000000     -0.017122     -0.199891
      7.26000      0.00000      3.63477        -0.008464      0.000000     -0.182031
      7.26000      3.63000      3.63477        -0.000007     -0.000348     -0.189878
      7.26000      7.26000      3.63477        -0.000007      0.000348     -0.189878
      1.81500      1.81500      3.63477        -0.000348      0.000007     -0.189878
      1.81500      5.44500      3.63477         0.017122      0.000000     -0.199891
      1.81500      9.07500      3.63477        -0.000348     -0.000007     -0.189878
      5.44500      1.81500      3.63477         0.000348      0.000007     -0.189878
      5.44500      5.44500      3.63477        -0.017122     -0.000000     -0.199891
      5.44500      9.07500      3.63477         0.000348     -0.000007     -0.189878
      9.07500      1.81500      3.63477         0.000000      0.008464     -0.182031
      9.07500      5.44500      3.63477         0.000000     -0.000000     -0.170199
      9.07500      9.07500      3.63477         0.000000     -0.008464     -0.182031
      0.00141      1.81641      5.38824        -0.001628     -0.001628      0.000087
      0.00504      5.44500      5.38820        -0.002375     -0.000000      0.000098
      0.00141      9.07359      5.38824        -0.001628      0.001628      0.000087
      3.63000      1.82004      5.38820         0.000000     -0.002375      0.000098
      3.63000      5.44500      5.38746         0.000000     -0.000000      0.006814
      3.63000      9.06996      5.38820         0.000000      0.002375      0.000098
[...]
      3.63000      5.44500     12.40205         0.000000      0.000000      0.003905
      3.63000      9.08031     12.39248         0.000000     -0.004184      0.003711
      7.25843      1.81657     12.40035        -0.003862      0.003862      0.004424
      7.26531      5.44500     12.39248        -0.004184     -0.000000      0.003711
      7.25843      9.07343     12.40035        -0.003862     -0.003862      0.004424
      1.81428      0.00000     12.40017         0.002277     -0.000000     -0.000002
      1.82482      3.63982     12.41272         0.000737      0.000737     -0.002329
      1.82482      7.25018     12.41272         0.000737     -0.000737     -0.002329
      5.44572      0.00000     12.40017        -0.002277      0.000000     -0.000002
      5.43518      3.63982     12.41272        -0.000737      0.000737     -0.002329
      5.43518      7.25018     12.41272        -0.000737     -0.000737     -0.002329
      9.07500      0.00000     12.39771         0.000000      0.000000      0.003597
      9.07500      3.62928     12.40017         0.000000      0.002277     -0.000002
      9.07500      7.26072     12.40017        -0.000000     -0.002277     -0.000002
      3.63000      5.44500     13.91502         0.000000     -0.000000     -0.005591
    total drift:                               -0.000123     -0.000136      0.199699

  FREE ENERGIE OF THE ION-ELECTRON SYSTEM (eV)
  free  energy   TOTEN  =      -578.42374903 eV

  energy  without entropy=     -578.55540836  energy(sigma->0) =     -578.46763547

 d Force = 0.2351023E-02[ 0.110E-02, 0.361E-02]  d Energy = 0.2871002E-02-0.520E-03
 d Force =-0.1082611E+03[-0.108E+03,-0.108E+03]  d Ewald  =-0.1082610E+03-0.386E-04

 stress matrix after NEB project (eV)
    -75.54253      0.00000     -0.00000
      0.00000    -75.54253      0.00000
      0.00000      0.00000    -31.62471
  FORCES: max atom, RMS     0.025220    0.008615
  FORCE total and by dimension    0.103740    0.025220
  Stress total and by dimension  111.415754   75.542531
 Conjugate gradient step on ions:
 trial-energy change:   -0.002871  1 .order   -0.002351   -0.003605   -0.001097
  (g-gl).g = 0.312E-03      g.g   = 0.314E-02  gl.gl    = 0.152E-01
 g(Force)  = 0.314E-02   g(Stress)= 0.000E+00 ortho     = 0.578E-03
 gamma     =   0.02054
 trial     =   1.14279
 opt step  =   1.64258  (harmonic =   1.64258) maximal distance =0.00188455
 next E    =  -578.423469   (d E  =  -0.00259)

 reached required accuracy - stopping structural energy minimisation