 vasp.6.3.2 27Jun22 (build Aug 17 2022 15:43:34) complex

 executed on           tv2STDVTST date 2025.02.04  14:32:01

 INCAR:
   ISTART = 0
   ICHARG = 2
   IPIPOL = 3
   IVDW = 11
   ISPIN = 2
   ENCUT = 400
   PREC = Normal
   EDIFF = 2E-04
   GGA = PE
   ISMEAR = 1
   SIGMA = 0.2
   LREAL = .FALSE.
   ISYM = 1
   NSW = 800
   IBRION = 2
   POTIM = 0.5
   ISIF = 2
   EDIFFG = -.03
   NPAR = 4
   LWAVE = .FALSE.
   LCHARG = .FALSE.

 POTCAR:    PAW_PBE Cu 22Jun2005
 POTCAR:    PAW_PBE H 15Jun2001
|           W    W    AA    RRRRR   N    N  II  N    N   GGGG   !!!           |
|           W    W   A  A   R    R  NN   N  II  NN   N  G    G  !!!           |
|           W    W  A    A  R    R  N N  N  II  N N  N  G       !!!           |
|           W WW W  AAAAAA  RRRRR   N  N N  II  N  N N  G  GGG   !            |
|           WW  WW  A    A  R   R   N   NN  II  N   NN  G    G                |
|           W    W  A    A  R    R  N    N  II  N    N   GGGG   !!!           |
|     You use a magnetic or noncollinear calculation, but did not specify     |
|     the initial magnetic moment with the MAGMOM tag. Note that a            |
|     default of 1 will be used for all atoms. This ferromagnetic setup       |
|     may break the symmetry of the crystal, in particular it may rule        |
|     out finding an antiferromagnetic solution. Thence, we recommend         |
|     setting the initial magnetic moment manually or verifying carefully     |
|     that this magnetic setup is desired.                                    |

   TITEL  = PAW_PBE Cu 22Jun2005
   POMASS =   63.546; ZVAL   =   11.000    mass and valenz
   ENMAX  =  295.446; ENMIN  =  221.585 eV

   TITEL  = PAW_PBE H 15Jun2001
   POMASS =    1.000; ZVAL   =    1.000    mass and valenz
   ENMAX  =  250.000; ENMIN  =  200.000 eV

  PAW_PBE Cu 22Jun2005                  :
  PAW_PBE H 15Jun2001                   :

 POSCAR: FCC Cu
  positions in cartesian coordinates
 exchange correlation table for  LEXCH =        8
   RHO(1)=    0.500       N(1)  =     2000
   RHO(2)=  100.500       N(2)  =     4000

 VTST: version 4.2, (08/11/21)

 CHAIN: initializing optimizer

 OPT: Using VASP Conjugate-Gradient optimizer
 CHAIN: Read ICHAIN            0

 POSCAR: FCC Cu
  positions in cartesian coordinates

 ion  position               nearest neighbor table
   1  0.000  0.000  0.000-   2 2.57   2 2.57   2 2.57
   2  0.333  0.333  0.071-   3 2.51   3 2.51   3 2.51   1 2.57   1 2.57   1 2.57
   3  0.667  0.667  0.139-   2 2.51   2 2.51   2 2.51   4 2.53   4 2.53   4 2.53
   4  0.000  0.000  0.208-   5 2.51   5 2.51   5 2.51   3 2.53   3 2.53   3 2.53
   5  0.333  0.333  0.277-   4 2.51   4 2.51   4 2.51   6 2.53   6 2.53   6 2.53
   6  0.667  0.667  0.346-   7 2.51   7 2.51   7 2.51   5 2.53   5 2.53   5 2.53
   7  0.000  0.000  0.414-   8 2.49   8 2.49   8 2.49   6 2.51   6 2.51   6 2.51
   8  0.333  0.333  0.481-   9 1.57   7 2.49   7 2.49   7 2.49
   9  0.333  0.333  0.534-  10 0.75   8 1.57
  10  0.215  0.571  0.552-   9 0.75

  LATTYP: Found a hexagonal cell.
 ALAT       =     2.5667977333
 C/A-ratio  =    11.5593335643

  Lattice vectors:

 A1 = (  -1.2833988667,  -2.2229120434,   0.0000000000)
 A2 = (   2.5667977333,   0.0000000000,   0.0000000000)
 A3 = (   0.0000000000,   0.0000000000,  29.6704711914)

Analysis of symmetry for initial positions (statically):
 Subroutine PRICEL returns:
 Original cell was already a primitive cell.

 Routine SETGRP: Setting up the symmetry group for a
 hexagonal supercell.

 Subroutine GETGRP returns: Found  2 space group operations
 (whereof  2 operations were pure point group operations)
 out of a pool of 24 trial point group operations.

The static configuration has the point symmetry C_1h.

Analysis of symmetry for dynamics (positions and initial velocities):
 Subroutine PRICEL returns:
 Original cell was already a primitive cell.

[...]

The dynamic configuration has the point symmetry C_1h.

Analysis of structural, dynamic, and magnetic symmetry:
 Subroutine PRICEL returns:
 Original cell was already a primitive cell.

 Routine SETGRP: Setting up the symmetry group for a
 hexagonal supercell.

 Subroutine GETGRP returns: Found  2 space group operations
 (whereof  2 operations were pure point group operations)
 out of a pool of 24 trial point group operations.

The overall configuration has the point symmetry C_1h.

 Subroutine INISYM returns: Found  2 space group operations
 (whereof  2 operations are pure point group operations),
 and found     1 'primitive' translations

                                     Primitive cell

  volume of cell :     169.2928

  direct lattice vectors                    reciprocal lattice vectors
     2.566797733  0.000000000  0.000000000     0.389590495 -0.224930177  0.000000000
     1.283398867  2.222912043  0.000000000     0.000000000  0.449860355  0.000000000
     0.000000000  0.000000000 29.670471191     0.000000000  0.000000000  0.033703543

  length of vectors
     2.566797733  2.566797733 29.670471191     0.449860355  0.449860355  0.033703543

  position of ions in fractional coordinates (direct lattice)
     0.000000000  0.000000000  0.000000000
     0.333333333  0.333333333  0.070635264
     0.666666667  0.666666667  0.139085938
     0.000000000  0.000000000  0.208165116
     0.333333333  0.333333333  0.276562395
     0.666666667  0.666666667  0.345560339
     0.000000000  0.000000000  0.414005934
     0.333333333  0.333333333  0.481392695
     0.333333334  0.333333333  0.534259303
     0.214682292  0.570635416  0.552037977

  ion indices of the primitive-cell ions
   primitive index   ion index
                 1           1
                 2           2
                 3           3
                 4           4
                 5           5
                 6           6
                 7           7
                 8           8
                 9           9
                10          10

 KPOINTS: Auto-mesh

Automatic generation of k-mesh.
 Grid dimensions read from file:
 generate k-points for:    3    3    1

 Generating k-lattice:

  Cartesian coordinates                     Fractional coordinates (reciprocal lattice)
     0.129863498 -0.074976726  0.000000000     0.333333333  0.000000000  0.000000000
     0.000000000  0.149953452  0.000000000     0.000000000  0.333333333  0.000000000
     0.000000000  0.000000000  0.033703543     0.000000000  0.000000000  1.000000000

  Length of vectors
     0.149953452  0.149953452  0.033703543

  Shift w.r.t. Gamma in fractional coordinates (k-lattice)
     0.000000000  0.000000000  0.000000000

 Subroutine IBZKPT returns following result:

 Found      4 irreducible k-points:

 Following reciprocal coordinates:
            Coordinates               Weight
  0.000000  0.000000  0.000000      1.000000
  0.333333  0.000000  0.000000      4.000000
  0.000000  0.333333  0.000000      2.000000
 -0.333333  0.333333  0.000000      2.000000

 Following cartesian coordinates:
            Coordinates               Weight
  0.000000  0.000000  0.000000      1.000000
  0.129863 -0.074977  0.000000      4.000000
  0.000000  0.149953  0.000000      2.000000
 -0.129863  0.224930  0.000000      2.000000

 SYSTEM =  unknown system
 POSCAR =  FCC Cu

 Startparameter for this run:
   NWRITE =      2    write-flag & timer
   PREC   = normal    normal or accurate (medium, high low for compatibility)
   ISTART =      0    job   : 0-new  1-cont  2-samecut
   ICHARG =      2    charge: 1-file 2-atom 10-const
   ISPIN  =      2    spin polarized calculation?
   LNONCOLLINEAR =      F non collinear calculations
   LSORBIT =      F    spin-orbit coupling
   INIWAV =      1    electr: 0-lowe 1-rand  2-diag
   LASPH  =      F    aspherical Exc in radial PAW
 Electronic Relaxation 1
   ENCUT  =  400.0 eV  29.40 Ry    5.42 a.u.   4.19  4.19 48.39*2*pi/ulx,y,z
   ENINI  =  400.0     initial cutoff
   ENAUG  =  587.0 eV  augmentation charge cutoff
   NELM   =     60;   NELMIN=  2; NELMDL= -5     # of ELM steps
   EDIFF  = 0.2E-03   stopping-criterion for ELM
   LREAL  =      F    real-space projection
   NLSPLINE    = F    spline interpolate recip. space projectors
   LCOMPAT=      F    compatible to vasp.4.4
   GGA_COMPAT  = T    GGA compatible to vasp.4.4-vasp.4.6
   LMAXPAW     = -100 max onsite density
   LMAXMIX     =    2 max onsite mixed and CHGCAR
   VOSKOWN=      0    Vosko Wilk Nusair interpolation
   ROPT   =    0.00000   0.00000
 Ionic relaxation
   EDIFFG = -.3E-01   stopping-criterion for IOM
   NSW    =    800    number of steps for IOM
   NBLOCK =      1;   KBLOCK =    800    inner block; outer block
   IBRION =      2    ionic relax: 0-MD 1-quasi-New 2-CG
   NFREE  =      1    steps in history (QN), initial steepest desc. (CG)
   ISIF   =      2    stress and relaxation
   IWAVPR =     11    prediction:  0-non 1-charg 2-wave 3-comb
   ISYM   =      1    0-nonsym 1-usesym 2-fastsym
   LCORR  =      T    Harris-Foulkes like correction to forces

   POTIM  = 0.5000    time-step for ionic-motion
   TEIN   =    0.0    initial temperature
   TEBEG  =    0.0;   TEEND  =   0.0 temperature during run
   SMASS  =  -3.00    Nose mass-parameter (am)
   estimated Nose-frequenzy (Omega)   =  0.10E-29 period in steps = 0.13E+47 mass=  -0.151E-27a.u.
   SCALEE = 1.0000    scale energy and forces
   NPACO  =    256;   APACO  = 10.0  distance and # of slots for P.C.
   PSTRESS=    0.0 pullay stress

  Mass of Ions in am
   POMASS =  63.55  1.00
  Ionic Valenz
   ZVAL   =  11.00  1.00
  Atomic Wigner-Seitz radii
  virtual crystal weights
   VCA    =   1.00  1.00
   NELECT =      90.0000    total number of electrons
   NUPDOWN=      -1.0000    fix difference up-down

 DOS related values:
   EMIN   =  10.00;   EMAX   =-10.00  energy-range for DOS
   EFERMI =   0.00
   ISMEAR =     1;   SIGMA  =   0.20  broadening in eV -4-tet -1-fermi 0-gaus

 Electronic relaxation 2 (details)
   IALGO  =     38    algorithm
   LDIAG  =      T    sub-space diagonalisation (order eigenvalues)
   LSUBROT=      F    optimize rotation matrix (better conditioning)
   TURBO    =      0    0=normal 1=particle mesh
   IRESTART =      0    0=no restart 2=restart with 2 vectors
   NREBOOT  =      0    no. of reboots
   NMIN     =      0    reboot dimension
   EREF     =   0.00    reference energy to select bands
   IMIX   =      4    mixing-type and parameters
     AMIX     =   0.40;   BMIX     =  1.00
     AMIX_MAG =   1.60;   BMIX_MAG =  1.00
     AMIN     =   0.10
     WC   =   100.;   INIMIX=   1;  MIXPRE=   1;  MAXMIX= -45

 Intra band minimization:
   WEIMIN = 0.0010     energy-eigenvalue tresh-hold
   EBREAK =  0.83E-06  absolut break condition
   DEPER  =   0.30     relativ break condition

   TIME   =   0.40     timestep for ELM

  volume/ion in A,a.u.               =      16.93       114.24
  Fermi-wavevector in a.u.,A,eV,Ry     =   1.326202  2.506158 23.930072  1.758811
  Thomas-Fermi vector in A             =   2.455606

 Write flags
   LWAVE        =      F    write WAVECAR
   LDOWNSAMPLE  =      F    k-point downsampling of WAVECAR
   LCHARG       =      F    write CHGCAR
   LVTOT        =      F    write LOCPOT, total local potential
[...]
  FORCE total and by dimension    0.508336    0.294967
  Stress total and by dimension    6.133176    4.296086
 Conjugate gradient step on ions:
 trial-energy change:   -0.033393  1 .order   -0.033036   -0.045480   -0.020592
  (g-gl).g = 0.578E-01      g.g   = 0.423E-01  gl.gl    = 0.127E+00
 g(Force)  = 0.423E-01   g(Stress)= 0.000E+00 ortho     = 0.107E-02
 gamma     =   0.45539
 trial     =   1.06272
 opt step  =   1.94197  (harmonic =   1.94197) maximal distance =0.06236465
 next E    =   -40.804628   (d E  =  -0.04155)

[...]

 d Force =-0.5197389E-03[-0.265E-02, 0.162E-02]  d Energy =-0.5107767E-03-0.896E-05
 d Force =-0.1334672E+03[-0.134E+03,-0.133E+03]  d Ewald  =-0.1334673E+03 0.573E-04

[...]

 d Force = 0.5271832E-03[-0.596E-03, 0.165E-02]  d Energy = 0.9050445E-03-0.378E-03
 d Force = 0.8303222E+02[ 0.829E+02, 0.831E+02]  d Ewald  = 0.8303223E+02-0.129E-04

[...]

 d Force = 0.2778056E-02[ 0.148E-02, 0.407E-02]  d Energy = 0.2646492E-02 0.132E-03
 d Force = 0.3399572E+02[ 0.339E+02, 0.341E+02]  d Ewald  = 0.3399573E+02-0.545E-05

[...]

 d Force =-0.3847487E-02[-0.115E-01, 0.376E-02]  d Energy =-0.2682369E-02-0.117E-02
 d Force = 0.2242303E+03[ 0.223E+03, 0.225E+03]  d Ewald  = 0.2242313E+03-0.977E-03

[...]

 d Force =-0.1250519E-04[-0.394E-04, 0.144E-04]  d Energy = 0.6305678E-04-0.756E-04
 d Force =-0.5357147E+01[-0.536E+01,-0.536E+01]  d Ewald  =-0.5357147E+01 0.664E-08

[...]

 d Force = 0.1418302E-04[-0.479E-06, 0.288E-04]  d Energy =-0.5438426E-04 0.686E-04
 d Force = 0.3925817E+01[ 0.393E+01, 0.393E+01]  d Ewald  = 0.3925817E+01-0.268E-08

[...]

 d Force = 0.6669005E-04[-0.139E-02, 0.153E-02]  d Energy =-0.1693159E-03 0.236E-03
 d Force = 0.2392516E+03[ 0.239E+03, 0.240E+03]  d Ewald  = 0.2392516E+03 0.202E-04

[...]

 d Force = 0.1481189E-03[-0.315E-03, 0.611E-03]  d Energy =-0.4895105E-05 0.153E-03
 d Force =-0.5889702E+02[-0.589E+02,-0.589E+02]  d Ewald  =-0.5889701E+02-0.251E-05

[...]

 d Force =-0.1099871E-05[-0.109E-03, 0.107E-03]  d Energy = 0.9560093E-04-0.967E-04
 d Force = 0.2002773E+02[ 0.200E+02, 0.200E+02]  d Ewald  = 0.2002773E+02-0.197E-05

[...]

 d Force =-0.8060209E-05[-0.712E-04, 0.551E-04]  d Energy =-0.6334755E-04 0.553E-04
 d Force =-0.1011499E+02[-0.101E+02,-0.101E+02]  d Ewald  =-0.1011499E+02 0.213E-05

[...]

 d Force = 0.2687846E-04[ 0.136E-04, 0.402E-04]  d Energy =-0.1808618E-04 0.450E-04
 d Force = 0.5702874E+01[ 0.570E+01, 0.570E+01]  d Ewald  = 0.5702874E+01 0.437E-08

[...]

 stress matrix after NEB project (eV)
     -4.88524     -0.00000     -0.00000
     -0.00000     -4.67129     -0.38729
     -0.00000     -0.38729     -0.95739
  FORCES: max atom, RMS     0.033344    0.016440
  FORCE total and by dimension    0.051988    0.032796
  Stress total and by dimension    6.848583    4.885238
 Conjugate gradient step on ions:
 trial-energy change:   -0.000188  1 .order   -0.000158   -0.000176   -0.000139
  (g-gl).g = 0.201E-03      g.g   = 0.291E-03  gl.gl    = 0.600E-03
 g(Force)  = 0.291E-03   g(Stress)= 0.000E+00 ortho     =-0.436E-04
 gamma     =   0.33461
 trial     =   0.63814
 opt step  =   2.55254  (harmonic =   3.03215) maximal distance =0.00679949
 next E    =   -40.895340   (d E  =  -0.00042)

[...]

 d Force =-0.8012239E-03[-0.194E-02, 0.336E-03]  d Energy =-0.7350920E-03-0.661E-04
 d Force = 0.6546901E+02[ 0.654E+02, 0.656E+02]  d Ewald  = 0.6546899E+02 0.208E-04

[...]

 eigenvalues of (default mixing * dielectric matrix)
  average eigenvalue GAMMA=   0.2659
  0.2659

[...]

 d Force =-0.3911540E-04[-0.890E-04, 0.108E-04]  d Energy = 0.7478513E-04-0.114E-03
 d Force = 0.2061461E+01[ 0.206E+01, 0.206E+01]  d Ewald  = 0.2061461E+01-0.626E-09

[...]

 d Force = 0.1842737E-04[-0.425E-04, 0.794E-04]  d Energy =-0.1047852E-03 0.123E-03
 d Force =-0.1838547E+01[-0.184E+01,-0.184E+01]  d Ewald  =-0.1838547E+01 0.575E-09

[...]

 d Force = 0.2132174E-05[-0.170E-04, 0.213E-04]  d Energy = 0.8095305E-05-0.596E-05
 d Force = 0.9192903E+00[ 0.919E+00, 0.919E+00]  d Ewald  = 0.9192903E+00-0.247E-09

[...]

 d Force = 0.2799892E-05[-0.196E-05, 0.756E-05]  d Energy = 0.1629141E-05 0.117E-05
 d Force =-0.4084355E+00[-0.408E+00,-0.408E+00]  d Ewald  =-0.4084355E+00-0.269E-09

[...]

 d Force = 0.3254396E-06[ 0.248E-06, 0.402E-06]  d Energy =-0.1123202E-04 0.116E-04
 d Force = 0.8400383E-01[ 0.840E-01, 0.840E-01]  d Ewald  = 0.8400383E-01 0.487E-09

[...]

 d Force = 0.1717034E-04[ 0.238E-05, 0.320E-04]  d Energy = 0.3950609E-04-0.223E-04
 d Force =-0.2248720E+00[-0.225E+00,-0.225E+00]  d Ewald  =-0.2248720E+00 0.399E-08

[...]

 stress matrix after NEB project (eV)
     -4.72662     -0.00000     -0.00000
     -0.00000     -4.50733     -0.36709
     -0.00000     -0.36709     -0.78167
  FORCES: max atom, RMS     0.044948    0.034875
  FORCE total and by dimension    0.110283    0.044946
  Stress total and by dimension    6.598299    4.726623
 Conjugate gradient step on ions:
 trial-energy change:   -0.000015  1 .order   -0.000021   -0.000024   -0.000017
  (g-gl).g = 0.162E-02      g.g   = 0.160E-02  gl.gl    = 0.876E-03
 g(Force)  = 0.160E-02   g(Stress)= 0.000E+00 ortho     = 0.342E-04
 gamma     =   1.84443
 trial     =   0.01446
 opt step  =   0.05181  (harmonic =   0.05181) maximal distance =0.00041470
 next E    =   -40.895607   (d E  =  -0.00004)

[...]

 eigenvalue-minimisations  :   616
 total energy-change (2. order) : 0.2327078E-04  (-0.2485456E-04)
 number of electron      90.0000014 magnetization       0.0000001
 augmentation part       56.1479778 magnetization       0.0000000

 Broyden mixing:
  rms(total) = 0.10153E-02    rms(broyden)= 0.10147E-02
  rms(prec ) = 0.10397E-02
  weight for this iteration     100.00

[...]

--------------------------------------- Iteration     77(   2)  ---------------------------------------

 eigenvalue-minimisations  :   488
 total energy-change (2. order) :-0.3767720E-05  (-0.5007547E-05)
 number of electron      90.0000014 magnetization       0.0000001
 augmentation part       56.1479778 magnetization       0.0000000

 Free energy of the ion-electron system (eV)
  alpha Z        PSCENC =       285.34744303
  Ewald energy   TEWEN  =     53036.12215226
  -Hartree energ DENC   =    -63980.58737919
  -exchange      EXHF   =         0.00000000
  -V(xc)+E(xc)   XCENC  =       362.92841999
  PAW double counting   =     10593.42742227   -11455.88507563
  entropy T*S    EENTRO =        -0.02659125
  eigenvalues    EBANDS =       -31.17323605
  atomic energy  EATOM  =     11152.61838693
  Solvation  Ediel_sol  =         0.00000000
  free energy    TOTEN  =       -37.22845762 eV

  energy without entropy =      -37.20186638  energy(sigma->0) =      -37.21959387

 average (electrostatic) potential at core
  the test charge radii are     0.9430  0.5201
  (the norm of the test charge is              1.0000)
       1 -67.9908       2 -68.5621       3 -68.6533       4 -68.6141       5 -68.6186
       6 -68.6687       7 -68.6027       8 -68.1774       9 -35.2327      10 -35.1886

 E-fermi :   2.1287     XC(G=0):  -8.1057     alpha+bet : -7.8182

 Fermi energy:         2.1286667700

[...]

 k-point     4 :      -0.3333    0.3333    0.0000
  band No.  band energies     occupation
      1      -2.8716      1.00000
      2      -1.4928      1.00000
      3      -1.4741      1.00000
      4      -1.4666      1.00000
      5      -1.4109      1.00000
      6      -1.3705      1.00000
      7      -1.3560      1.00000
      8      -1.3234      1.00000
      9      -1.3153      1.00000
     10      -1.3032      1.00000
     11      -1.3006      1.00000
     12      -1.2685      1.00000
     13      -1.1686      1.00000
     14      -1.0817      1.00000
     15      -1.0032      1.00000
     16      -0.9619      1.00000
     17      -0.6562      1.00000
     18      -0.6131      1.00000
     19      -0.5962      1.00000
     20      -0.5393      1.00000
     21      -0.3878      1.00000
     22      -0.2923      1.00000
     23       0.0740      1.00000
     24       0.0836      1.00000
     25       0.2861      1.00000
     26       0.3010      1.00000
     27       0.3801      1.00000
     28       0.3869      1.00000
     29       0.4135      1.00000
     30       0.4251      1.00000
     31       0.4346      1.00000
     32       0.6798      1.00000
     33       0.7820      1.00000
     34       0.9085      1.00000
     35       0.9141      1.00000
     36       0.9308      1.00000
     37       1.0073      1.00000
     38       1.0527      1.00000
     39       1.0772      1.00000
     40       1.1254      1.00000
     41       1.1956      1.00000
     42       5.8342     -0.00000
     43       5.8381     -0.00000
     44       5.8620     -0.00000
     45       6.0061     -0.00000
     46       6.0280     -0.00000
     47       6.2483     -0.00000
     48       6.4065     -0.00000
     49       6.8903     -0.00000
     50       7.1550     -0.00000
     51       7.6817      0.00000
     52       7.7629      0.00000
     53       7.8636      0.00000
     54       8.2042      0.00000
     55       8.3356      0.00000
     56       8.5261      0.00000
     57       9.2122      0.00000
     58       9.4007      0.00000
     59      10.5055      0.00000
     60      10.6002      0.00000
 Fermi energy:         2.1286667700

 spin component 2

[...]

 k-point     4 :      -0.3333    0.3333    0.0000
  band No.  band energies     occupation
      1      -2.8716      1.00000
      2      -1.4928      1.00000
      3      -1.4741      1.00000
      4      -1.4666      1.00000
      5      -1.4109      1.00000
      6      -1.3705      1.00000
      7      -1.3560      1.00000
      8      -1.3234      1.00000
      9      -1.3153      1.00000
     10      -1.3032      1.00000
     11      -1.3006      1.00000
     12      -1.2685      1.00000
     13      -1.1686      1.00000
     14      -1.0817      1.00000
     15      -1.0032      1.00000
     16      -0.9619      1.00000
     17      -0.6562      1.00000
     18      -0.6131      1.00000
     19      -0.5962      1.00000
     20      -0.5393      1.00000
     21      -0.3878      1.00000
     22      -0.2923      1.00000
     23       0.0740      1.00000
     24       0.0836      1.00000
     25       0.2861      1.00000
     26       0.3010      1.00000
     27       0.3801      1.00000
     28       0.3869      1.00000
     29       0.4135      1.00000
     30       0.4251      1.00000
     31       0.4346      1.00000
     32       0.6798      1.00000
     33       0.7820      1.00000
     34       0.9085      1.00000
     35       0.9141      1.00000
     36       0.9308      1.00000
     37       1.0073      1.00000
     38       1.0527      1.00000
     39       1.0772      1.00000
     40       1.1254      1.00000
     41       1.1956      1.00000
     42       5.8342     -0.00000
     43       5.8381     -0.00000
     44       5.8620     -0.00000
     45       6.0061     -0.00000
     46       6.0280     -0.00000
     47       6.2483     -0.00000
     48       6.4065     -0.00000
     49       6.8903     -0.00000
     50       7.1550     -0.00000
     51       7.6817      0.00000
     52       7.7629      0.00000
     53       7.8636      0.00000
     54       8.2042      0.00000
     55       8.3356      0.00000
     56       8.5261      0.00000
     57       9.2122      0.00000
     58       9.4007      0.00000
     59      10.5055      0.00000
     60      10.6002      0.00000

[...]

 soft charge-density along one line, spin component           2
         0         1         2         3         4         5         6         7         8         9
 total charge-density along one line

------------------------ aborting loop because EDIFF is reached ----------------------------------------

         DFTD3 V3.0 Rev 1
 Edisp (eV)   -3.66715

 E6    (eV) :    -1.5394
 E8    (eV) :    -2.1277
 % E8        : 58.02

  FORCE on cell =-STRESS in cart. coord.  units (eV):
  Direction    XX          YY          ZZ          XY          YZ          ZX
  Alpha Z   285.34744   285.34744   285.34744
  Ewald   58906.16378 58926.39320-64796.44794    -0.00000    -0.73846    -0.00000
  Hartree 62155.30903 62163.52338-60338.01673     0.00000    -3.45511    -0.00000
  E(xc)    -521.00406  -520.91467  -521.10886    -0.00013     0.08715     0.00000
  Local  ************************124063.88629     0.00401     7.35114    -0.00001
  n-local  -174.87527  -174.95955  -179.88255     4.01151    -0.61681     1.35893
  augment   759.96987   759.71259   753.53877    -0.00382     0.10133     0.00003
  Kinetic   742.73637   740.26321   735.80312   -15.35098    -3.11007     2.72435
  Fock        0.00000     0.00000     0.00000     0.00000     0.00000     0.00000
  vdW        -4.35609    -4.38390    -3.82975     0.00000     0.00612     0.00000
  Total      -4.65189    -4.43765    -0.71020    -0.00000    -0.37470    -0.00000
  in kB     -44.02524   -41.99764    -6.72129    -0.00000    -3.54618    -0.00000

 VOLUME and BASIS-vectors are now :
  energy-cutoff  :      400.00
  volume of cell :      169.29
      direct lattice vectors                 reciprocal lattice vectors
     2.566797733  0.000000000  0.000000000     0.389590495 -0.224930177  0.000000000
     1.283398867  2.222912043  0.000000000     0.000000000  0.449860355  0.000000000
     0.000000000  0.000000000 29.670471191     0.000000000  0.000000000  0.033703543

  length of vectors
     2.566797733  2.566797733 29.670471191     0.449860355  0.449860355  0.033703543

 FORCES acting on ions
    electron-ion (+dipol)            ewald-force                    non-local-force                 convergence-correction
   -.686E-05 -.322E-01 0.607E+04   0.105E-07 0.353E-01 -.606E+04   -.415E-12 -.184E-01 -.360E+01   0.260E-06 0.957E-03 -.220E-01
   0.146E-04 -.105E+00 0.436E+04   -.260E-07 0.109E+00 -.436E+04   -.403E-12 -.179E-01 0.224E+00   0.282E-06 0.126E-02 -.297E-01
   -.885E-06 -.261E+00 0.266E+04   0.246E-07 0.267E+00 -.266E+04   -.412E-12 -.183E-01 0.651E-01   0.197E-06 0.175E-02 -.144E-01
   -.176E-04 -.164E+00 0.979E+03   0.453E-09 0.170E+00 -.978E+03   -.470E-12 -.209E-01 -.799E+00   0.333E-06 0.176E-02 0.790E-02
   0.713E-05 -.115E+00 -.726E+03   -.237E-07 0.122E+00 0.725E+03   -.491E-12 -.218E-01 0.795E+00   0.292E-06 0.134E-02 0.187E-01
   0.267E-04 -.171E-01 -.241E+04   0.235E-07 0.166E-01 0.241E+04   -.249E-12 -.111E-01 -.673E-01   0.132E-07 0.657E-03 0.308E-01
   0.759E-06 -.803E-01 -.411E+04   0.510E-09 0.933E-01 0.411E+04   -.656E-12 -.292E-01 0.638E-01   0.350E-06 0.938E-03 0.201E-01
   -.276E-05 -.682E-01 -.582E+04   -.977E-08 -.191E-01 0.581E+04   0.156E-11 0.691E-01 0.437E+01   0.218E-06 0.628E-03 0.842E-02
   -.231E-06 0.106E+02 -.507E+03   -.146E-10 -.135E+02 0.504E+03   0.641E-10 0.285E+01 0.381E+01   0.903E-07 0.110E-02 0.104E-02
   -.381E-07 -.990E+01 -.491E+03   -.290E-10 0.127E+02 0.495E+03   -.634E-10 -.282E+01 -.395E+01   -.762E-07 -.890E-03 -.199E-02
   0.208E-04 -.104E+00 -.104E+01   0.219E-12 -.568E-13 -.222E-11   -.843E-12 -.375E-01 0.918E+00   0.196E-05 0.951E-02 0.188E-01

 POSITION                                       TOTAL-FORCE (eV/Angst)
      0.00000      0.00436     -0.00352        -0.000000     -0.001069     -0.005412
      1.28340      0.74658      1.99058         0.000000      0.000643      0.016181
      2.56680      1.49310      4.01469         0.000000      0.003445      0.006515
      0.00000      0.02742      6.05189        -0.000000     -0.000052     -0.015942
      1.28340      0.78984      8.06642        -0.000000     -0.000144      0.005762
      2.56680      1.55805     10.10113         0.000000      0.002198     -0.013530
      0.00000      0.10278     12.11983        -0.000000     -0.001965      0.017791
      1.28340      0.87242     14.11847        -0.000000     -0.001728     -0.010725
      1.28340      0.58153     16.28744        -0.000000     -0.008633     -0.023349
      1.28340      1.02016     16.90848         0.000000      0.007305      0.022710
    total drift:                                0.000023     -0.132198     -0.103360

  FREE ENERGIE OF THE ION-ELECTRON SYSTEM (eV)
  free  energy   TOTEN  =       -40.89560676 eV

  energy  without entropy=      -40.86901551  energy(sigma->0) =      -40.88674301

 d Force = 0.2972800E-04[ 0.145E-04, 0.449E-04]  d Energy = 0.2819102E-04 0.154E-05
 d Force = 0.2449415E+00[ 0.245E+00, 0.245E+00]  d Ewald  = 0.2449415E+00 0.925E-08

 stress matrix after NEB project (eV)
     -4.65189     -0.00000     -0.00000
     -0.00000     -4.43765     -0.37470
     -0.00000     -0.37470     -0.71020
  FORCES: max atom, RMS     0.024894    0.015651
  FORCE total and by dimension    0.049493    0.023349
  Stress total and by dimension    6.489837    4.651891

 reached required accuracy - stopping structural energy minimisation