 vasp.6.3.2 27Jun22 (build Aug 17 2022 15:43:34) complex

 executed on           tv2STDVTST date 2025.01.24  21:50:22

 INCAR:
   ISTART = 0
   ICHARG = 2
   IPIPOL = 3
   IVDW = 11
   IDIPOL = 3
   IVDW = 11
   ISPIN = 2
   ENCUT = 400
   PREC = Normal
   EDIFF = 2E-04
   GGA = PE
   ISMEAR = 1
   SIGMA = 0.2
   LREAL = .FALSE.
   ISYM = 1
   NSW = 800
   IBRION = 2
   POTIM = 0.5
   ISIF = 2
   EDIFFG = -.03
   NPAR = 4
   LWAVE = .FALSE.
   LCHARG = .FALSE.

 POTCAR:    PAW_PBE Cu 22Jun2005
|           W    W    AA    RRRRR   N    N  II  N    N   GGGG   !!!           |
|           W    W   A  A   R    R  NN   N  II  NN   N  G    G  !!!           |
|           W    W  A    A  R    R  N N  N  II  N N  N  G       !!!           |
|           W WW W  AAAAAA  RRRRR   N  N N  II  N  N N  G  GGG   !            |
|           WW  WW  A    A  R   R   N   NN  II  N   NN  G    G                |
|           W    W  A    A  R    R  N    N  II  N    N   GGGG   !!!           |
|     You use a magnetic or noncollinear calculation, but did not specify     |
|     the initial magnetic moment with the MAGMOM tag. Note that a            |
|     default of 1 will be used for all atoms. This ferromagnetic setup       |
|     may break the symmetry of the crystal, in particular it may rule        |
|     out finding an antiferromagnetic solution. Thence, we recommend         |
|     setting the initial magnetic moment manually or verifying carefully     |
|     that this magnetic setup is desired.                                    |

   TITEL  = PAW_PBE Cu 22Jun2005
   POMASS =   63.546; ZVAL   =   11.000    mass and valenz
   ENMAX  =  295.446; ENMIN  =  221.585 eV

  PAW_PBE Cu 22Jun2005                  :

 POSCAR: FCC Cu
  positions in cartesian coordinates
  velocities in cartesian coordinates
 exchange correlation table for  LEXCH =        8
   RHO(1)=    0.500       N(1)  =     2000
   RHO(2)=  100.500       N(2)  =     4000

 VTST: version 4.2, (08/11/21)

 CHAIN: initializing optimizer

 OPT: Using VASP Conjugate-Gradient optimizer
 CHAIN: Read ICHAIN            0

 POSCAR: FCC Cu
  positions in cartesian coordinates
  velocities in cartesian coordinates

 ion  position               nearest neighbor table
   1  0.000  0.000  0.000-   7 2.57   4 2.57   8 2.57   2 2.57   6 2.57   3 2.57  16 2.57  12 2.57
                            10 2.57
   2  0.000  0.333  0.000-   4 2.57   5 2.57   1 2.57   3 2.57   8 2.57   9 2.57  10 2.57  17 2.57
                            11 2.57
   3  1.000  0.667  0.000-   7 2.57   9 2.57   1 2.57   2 2.57   5 2.57   6 2.57  18 2.57  12 2.57
                            11 2.57
   4  0.333  0.000  0.000-   2 2.57   6 2.57   1 2.57   5 2.57   9 2.57   7 2.57  10 2.57  15 2.57
                            13 2.57
   5  0.333  0.333  0.000-   2 2.57   8 2.57   4 2.57   7 2.57   3 2.57   6 2.57  11 2.57  13 2.57
                            14 2.57
   6  0.333  0.667  0.000-   4 2.57   9 2.57   1 2.57   8 2.57   5 2.57   3 2.57  12 2.57  15 2.57
                            14 2.57
   7  0.667  0.000  0.000-   8 2.57   3 2.57   1 2.57   5 2.57   9 2.57   4 2.57  18 2.57  13 2.57
                            16 2.57
   8  0.667  0.333  0.000-   7 2.57   5 2.57   1 2.57   6 2.57   2 2.57   9 2.57  14 2.57  16 2.57
                            17 2.57
   9  0.667  0.667  0.000-   3 2.57   6 2.57   4 2.57   7 2.57   2 2.57   8 2.57  15 2.57  18 2.57
                            17 2.57
  10  0.111  0.111  0.076-  16 2.57  13 2.57  17 2.57  11 2.57  15 2.57  12 2.57   4 2.57   2 2.57
                             1 2.57  19 2.57  21 2.57  25 2.57
  11  0.111  0.444  0.076-  13 2.57  14 2.57  10 2.57  12 2.57  17 2.57  18 2.57   5 2.57   2 2.57
                             3 2.57  20 2.57  19 2.57  26 2.57
  12  0.111  0.778  0.076-  16 2.57  18 2.57  10 2.57  11 2.57  14 2.57  15 2.57   1 2.57   6 2.57
                             3 2.57  21 2.57  20 2.57  27 2.57
  13  0.444  0.111  0.076-  11 2.57  15 2.57  10 2.57  14 2.57  18 2.57  16 2.57   5 2.57   7 2.57
                             4 2.57  22 2.57  24 2.57  19 2.57
  14  0.444  0.444  0.076-  11 2.57  17 2.57  13 2.57  16 2.57  12 2.57  15 2.57   8 2.57   5 2.57
                             6 2.57  23 2.57  22 2.57  20 2.57
  15  0.444  0.778  0.076-  13 2.57  18 2.57  10 2.57  17 2.57  14 2.57  12 2.57   9 2.57   4 2.57
                             6 2.57  24 2.57  23 2.57  21 2.57
  16  0.778  0.111  0.076-  17 2.57  12 2.57  10 2.57  14 2.57  18 2.57  13 2.57   1 2.57   8 2.57
                             7 2.57  25 2.57  27 2.57  22 2.57
  17  0.778  0.444  0.076-  16 2.57  14 2.57  10 2.57  15 2.57  11 2.57  18 2.57   2 2.57   8 2.57
                             9 2.57  26 2.57  25 2.57  23 2.57
  18  0.778  0.778  0.076-  12 2.57  15 2.57  13 2.57  16 2.57  11 2.57  17 2.57  27 2.57   3 2.57
                             7 2.57   9 2.57  24 2.57  26 2.57
  19  0.222  0.222  0.152-  25 2.57  22 2.57  26 2.57  20 2.57  21 2.57  24 2.57  10 2.57  29 2.57
                            11 2.57  31 2.57  13 2.57  32 2.57
  20  0.222  0.556  0.152-  22 2.57  23 2.57  19 2.57  21 2.57  26 2.57  27 2.57  11 2.57  32 2.57
                            14 2.57  12 2.57  30 2.57  33 2.57
  21  0.222  0.889  0.152-  25 2.57  19 2.57  20 2.57  23 2.57  24 2.57  27 2.57  12 2.57  28 2.57
                            33 2.57  10 2.57  31 2.57  15 2.57
  22  0.556  0.222  0.152-  27 2.57  20 2.57  24 2.57  19 2.57  23 2.57  25 2.57  13 2.57  32 2.57
                            14 2.57  34 2.57  35 2.57  16 2.57
  23  0.556  0.556  0.152-  20 2.57  26 2.57  25 2.57  22 2.57  21 2.57  24 2.57  14 2.57  35 2.57
                            33 2.57  17 2.57  15 2.57  36 2.57
  24  0.556  0.889  0.152-  27 2.57  22 2.57  19 2.57  26 2.57  23 2.57  21 2.57  15 2.57  36 2.57
                            13 2.57  18 2.57  34 2.57  31 2.57
  25  0.889  0.222  0.152-  26 2.57  21 2.57  19 2.57  23 2.57  22 2.57  27 2.57  16 2.57  17 2.57
                            28 2.57  10 2.57  29 2.57  35 2.57
  26  0.889  0.556  0.152-  27 2.57  25 2.57  23 2.57  19 2.57  24 2.57  20 2.57  17 2.57  29 2.57
                            36 2.57  30 2.57  18 2.57  11 2.57
  27  0.889  0.889  0.152-  24 2.57  22 2.57  26 2.57  25 2.57  20 2.57  21 2.57  18 2.57  34 2.57
                            30 2.57  16 2.57  12 2.57  28 2.57
  28  0.000  0.000  0.228-  34 2.57  31 2.57  35 2.57  29 2.57  33 2.57  30 2.57  43 2.57  39 2.57
                            37 2.57  21 2.57  25 2.57  27 2.57
  29  0.000  0.333  0.228-  31 2.57  32 2.57  28 2.57  30 2.57  35 2.57  36 2.57  37 2.57  44 2.57
                            38 2.57  19 2.57  26 2.57  25 2.57
  30  1.000  0.667  0.228-  34 2.57  36 2.57  28 2.57  29 2.57  32 2.57  33 2.57  45 2.57  39 2.57
                            38 2.57  27 2.57  26 2.57  20 2.57
  31  0.333  0.000  0.228-  29 2.57  33 2.57  28 2.57  32 2.57  36 2.57  34 2.57  37 2.57  42 2.57
                            40 2.57  19 2.57  24 2.57  21 2.57
  32  0.333  0.333  0.228-  29 2.57  35 2.57  31 2.57  34 2.57  30 2.57  33 2.57  38 2.57  40 2.57
                            41 2.57  22 2.57  20 2.57  19 2.57
  33  0.333  0.667  0.228-  31 2.57  36 2.57  28 2.57  35 2.57  32 2.57  30 2.57  39 2.57  42 2.57
                            41 2.57  21 2.57  23 2.57  20 2.57
  34  0.667  0.000  0.228-  35 2.57  30 2.57  28 2.57  32 2.57  36 2.57  31 2.57  27 2.57  45 2.57
                            40 2.57  43 2.57  22 2.57  24 2.57
  35  0.667  0.333  0.228-  34 2.57  32 2.57  28 2.57  33 2.57  29 2.57  36 2.57  41 2.57  43 2.57
                            44 2.57  23 2.57  25 2.57  22 2.57
  36  0.667  0.667  0.228-  30 2.57  33 2.57  31 2.57  34 2.57  29 2.57  35 2.57  42 2.57  45 2.57
                            44 2.57  24 2.57  26 2.57  23 2.57
  37  0.111  0.111  0.304-  43 2.57  40 2.57  44 2.57  38 2.57  42 2.57  39 2.57  46 2.57  48 2.57
                            52 2.57  31 2.57  29 2.57  28 2.57
  38  0.111  0.444  0.304-  40 2.57  41 2.57  37 2.57  39 2.57  44 2.57  45 2.57  47 2.57  46 2.57
                            53 2.57  32 2.57  29 2.57  30 2.57
  39  0.111  0.778  0.304-  43 2.57  45 2.57  37 2.57  38 2.57  41 2.57  42 2.57  48 2.57  47 2.57
                            54 2.57  28 2.57  33 2.57  30 2.57
  40  0.444  0.111  0.304-  38 2.57  42 2.57  37 2.57  41 2.57  45 2.57  43 2.57  49 2.57  51 2.57
                            46 2.57  32 2.57  34 2.57  31 2.57
  41  0.444  0.444  0.304-  38 2.57  44 2.57  40 2.57  43 2.57  39 2.57  42 2.57  50 2.57  49 2.57
                            47 2.57  35 2.57  32 2.57  33 2.57
  42  0.444  0.778  0.304-  40 2.57  45 2.57  37 2.57  44 2.57  41 2.57  39 2.57  51 2.57  50 2.57
                            48 2.57  36 2.57  31 2.57  33 2.57
  43  0.778  0.111  0.304-  44 2.57  39 2.57  37 2.57  41 2.57  45 2.57  40 2.57  52 2.57  54 2.57
                            49 2.57  28 2.57  35 2.57  34 2.57
  44  0.778  0.444  0.304-  43 2.57  41 2.57  37 2.57  42 2.57  38 2.57  45 2.57  53 2.57  52 2.57
                            50 2.57  29 2.57  35 2.57  36 2.57
  45  0.778  0.778  0.304-  39 2.57  42 2.57  40 2.57  43 2.57  38 2.57  44 2.57  54 2.57  51 2.57
                            53 2.57  30 2.57  34 2.57  36 2.57
  46  0.222  0.222  0.380-  52 2.57  49 2.57  53 2.57  47 2.57  48 2.57  51 2.57  37 2.57  38 2.57
                            40 2.57  56 2.57  58 2.57  59 2.57
  47  0.222  0.556  0.380-  49 2.57  50 2.57  46 2.57  48 2.57  53 2.57  54 2.57  38 2.57  41 2.57
                            39 2.57  59 2.57  57 2.57  60 2.57
  48  0.222  0.889  0.380-  52 2.57  46 2.57  47 2.57  50 2.57  51 2.57  54 2.57  39 2.57  37 2.57
                            42 2.57  55 2.57  60 2.57  58 2.57
  49  0.556  0.222  0.380-  54 2.57  47 2.57  51 2.57  46 2.57  50 2.57  52 2.57  40 2.57  41 2.57
                            43 2.57  59 2.57  61 2.57  62 2.57
  50  0.556  0.556  0.380-  47 2.57  53 2.57  52 2.57  49 2.57  48 2.57  51 2.57  41 2.57  44 2.57
                            42 2.57  62 2.57  60 2.57  63 2.57
  51  0.556  0.889  0.380-  54 2.57  49 2.57  46 2.57  53 2.57  50 2.57  48 2.57  42 2.57  40 2.57
                            45 2.57  63 2.57  61 2.57  58 2.57
  52  0.889  0.222  0.380-  53 2.57  48 2.57  46 2.57  50 2.57  49 2.57  54 2.57  43 2.57  44 2.57
                            37 2.57  55 2.57  56 2.57  62 2.57
  53  0.889  0.556  0.380-  54 2.57  52 2.57  50 2.57  46 2.57  51 2.57  47 2.57  44 2.57  45 2.57
                            38 2.57  56 2.57  63 2.57  57 2.57
  54  0.889  0.889  0.380-  51 2.57  49 2.57  53 2.57  52 2.57  47 2.57  48 2.57  45 2.57  43 2.57
                            39 2.57  61 2.57  57 2.57  55 2.57
  55  0.000  0.000  0.456-  61 2.57  58 2.57  62 2.57  56 2.57  60 2.57  57 2.57  48 2.57  52 2.57
                            54 2.57
  56  0.000  0.333  0.456-  58 2.57  59 2.57  55 2.57  57 2.57  62 2.57  63 2.57  46 2.57  53 2.57
                            52 2.57
  57  1.000  0.667  0.456-  61 2.57  63 2.57  55 2.57  56 2.57  59 2.57  60 2.57  54 2.57  53 2.57
                            47 2.57
[...]
 Edisp (eV)  -26.12422

 E6    (eV) :   -10.7894
 E8    (eV) :   -15.3348
 % E8        : 58.70

  FORCE on cell =-STRESS in cart. coord.  units (eV):
  Direction    XX          YY          ZZ          XY          YZ          ZX
  Alpha Z  2049.86967  2049.86967  2049.86967
  Ewald  429924.78585429924.78585************    -0.00000     0.00000    -0.00000
  Hartree454499.65879454499.65879************     0.00000     0.00000    -0.00000
  E(xc)   -4049.49807 -4049.49729 -4054.15523    -0.00068     0.00001     0.00002
  Local  ************************907877.66682     0.03139    -0.00001    -0.00002
  n-local -1355.00888 -1343.38528 -1351.75042    10.07027    -0.20086     0.33642
  augment  5961.00863  5961.03339  5980.12202    -0.02144     0.00032     0.00054
  Kinetic  5647.47739  5647.91179  5681.07646     0.37783     1.84137    -3.18916
  Fock        0.00000     0.00000     0.00000     0.00000     0.00000     0.00000
  vdW       -31.84710   -31.84710   -25.63859     0.00000    -0.00000     0.00000
  Total     -37.35425   -37.35425    -6.13708    -0.00000     0.00000    -0.00000
  in kB     -42.26526   -42.26526    -6.94393    -0.00000     0.00000    -0.00000

 VOLUME and BASIS-vectors are now :
  energy-cutoff  :      400.00
  volume of cell :     1416.01
      direct lattice vectors                 reciprocal lattice vectors
     7.700393200  0.000000000  0.000000000     0.129863498 -0.074976726  0.000000000
     3.850196600  6.668736130  0.000000000     0.000000000  0.149953452  0.000000000
     0.000000000  0.000000000 27.574689865     0.000000000  0.000000000  0.036265140

  length of vectors
     7.700393200  7.700393200 27.574689865     0.149953452  0.149953452  0.036265140

 FORCES acting on ions
    electron-ion (+dipol)            ewald-force                    non-local-force                 convergence-correction
   -.449E-07 -.255E-07 0.546E+04   0.805E-07 -.216E-06 -.546E+04   0.108E-16 0.243E-16 -.197E+01   0.434E-08 0.262E-08 0.459E-01
   0.156E-04 0.348E-04 0.546E+04   -.200E-06 0.441E-06 -.546E+04   0.477E-17 0.191E-16 -.197E+01   0.309E-08 -.762E-09 0.459E-01
   -.175E-04 -.323E-04 0.546E+04   0.279E-06 -.310E-06 -.546E+04   0.997E-17 0.173E-16 -.197E+01   0.649E-08 0.527E-08 0.459E-01
   0.383E-04 -.196E-05 0.546E+04   0.189E-06 -.194E-06 -.546E+04   0.477E-17 0.130E-16 -.197E+01   0.995E-09 0.322E-08 0.459E-01
   0.131E-05 0.248E-05 0.546E+04   0.338E-07 0.441E-06 -.546E+04   0.139E-16 0.173E-17 -.197E+01   0.430E-08 0.246E-08 0.459E-01
   0.188E-04 -.328E-04 0.546E+04   -.239E-06 -.235E-06 -.546E+04   0.564E-17 0.781E-17 -.197E+01   0.212E-08 0.516E-08 0.459E-01
   -.384E-04 -.413E-06 0.546E+04   -.248E-06 -.117E-06 -.546E+04   -.304E-17 0.226E-16 -.197E+01   0.774E-08 0.303E-08 0.459E-01
   -.168E-04 0.353E-04 0.546E+04   0.189E-06 0.444E-06 -.546E+04   0.000E+00 0.130E-16 -.197E+01   0.564E-08 -.727E-09 0.459E-01
   -.157E-05 -.127E-05 0.546E+04   -.167E-07 -.286E-06 -.546E+04   0.213E-16 0.147E-16 -.197E+01   0.452E-08 0.258E-08 0.459E-01
   0.325E-04 0.201E-04 0.368E+04   -.920E-07 -.263E-06 -.368E+04   0.000E+00 -.976E-18 -.988E+00   -.292E-07 -.166E-07 -.213E+00
   0.607E-05 -.149E-05 0.368E+04   -.155E-06 0.548E-06 -.368E+04   -.163E-18 0.000E+00 -.988E+00   -.314E-07 -.182E-07 -.213E+00
   0.191E-05 -.395E-04 0.368E+04   0.253E-06 -.298E-06 -.368E+04   0.813E-18 -.184E-17 -.988E+00   -.311E-07 -.201E-07 -.213E+00
   0.966E-06 0.985E-05 0.368E+04   0.814E-07 -.109E-06 -.368E+04   0.114E-17 0.325E-18 -.988E+00   -.308E-07 -.181E-07 -.213E+00
   -.698E-05 -.103E-05 0.368E+04   -.432E-07 0.603E-06 -.368E+04   0.271E-18 0.542E-18 -.988E+00   -.311E-07 -.182E-07 -.213E+00
   0.235E-04 -.170E-04 0.368E+04   -.405E-06 -.322E-06 -.368E+04   -.163E-17 0.434E-18 -.988E+00   -.263E-07 -.204E-07 -.213E+00
   -.360E-04 0.220E-04 0.368E+04   -.808E-08 -.789E-07 -.368E+04   0.596E-18 0.542E-18 -.988E+00   -.336E-07 -.171E-07 -.213E+00
   -.194E-05 0.334E-04 0.368E+04   0.132E-06 0.410E-06 -.368E+04   0.146E-17 0.542E-18 -.988E+00   -.309E-07 -.126E-07 -.213E+00
   -.286E-04 -.156E-04 0.368E+04   -.408E-07 -.496E-06 -.368E+04   0.542E-18 -.434E-18 -.988E+00   -.357E-07 -.199E-07 -.213E+00
   0.309E-04 0.182E-04 0.184E+04   -.725E-07 -.214E-07 -.184E+04   -.434E-18 -.108E-18 0.762E-01   -.159E-05 -.916E-06 -.570E+00
   0.142E-05 -.312E-04 0.184E+04   -.139E-06 0.881E-06 -.184E+04   -.271E-18 -.146E-17 0.762E-01   -.158E-05 -.908E-06 -.570E+00
   0.381E-04 -.210E-04 0.184E+04   -.435E-06 -.471E-06 -.184E+04   0.434E-18 -.271E-18 0.762E-01   -.158E-05 -.913E-06 -.570E+00
   -.263E-04 0.194E-04 0.184E+04   0.241E-06 0.374E-06 -.184E+04   -.119E-17 -.163E-18 0.762E-01   -.158E-05 -.916E-06 -.570E+00
   0.646E-05 0.585E-05 0.184E+04   -.123E-06 0.437E-06 -.184E+04   -.488E-18 -.163E-18 0.762E-01   -.158E-05 -.913E-06 -.570E+00
   -.720E-06 -.687E-05 0.184E+04   -.917E-06 -.340E-06 -.184E+04   -.211E-17 -.217E-18 0.762E-01   -.158E-05 -.912E-06 -.570E+00
   -.116E-05 0.428E-04 0.184E+04   -.209E-06 -.355E-06 -.184E+04   -.922E-18 -.434E-18 0.762E-01   -.158E-05 -.912E-06 -.570E+00
   -.453E-05 0.601E-05 0.184E+04   0.222E-06 -.276E-07 -.184E+04   -.173E-17 -.125E-17 0.762E-01   -.158E-05 -.913E-06 -.570E+00
   -.227E-04 -.196E-04 0.184E+04   0.178E-05 -.384E-06 -.184E+04   -.136E-17 0.325E-18 0.762E-01   -.158E-05 -.913E-06 -.570E+00
   -.890E-07 -.514E-07 0.538E+01   0.671E-07 -.434E-06 -.479E+01   -.617E-18 -.542E-19 0.249E+00   -.275E-05 -.159E-05 -.826E+00
   0.168E-04 0.351E-04 0.538E+01   -.210E-06 0.407E-06 -.479E+01   0.271E-19 -.271E-18 0.249E+00   -.275E-05 -.158E-05 -.826E+00
   -.174E-04 -.337E-04 0.538E+01   0.544E-06 -.296E-06 -.479E+01   -.352E-18 -.271E-19 0.249E+00   -.276E-05 -.159E-05 -.826E+00
   0.391E-04 -.110E-05 0.538E+01   0.319E-07 -.327E-06 -.479E+01   -.298E-18 -.163E-18 0.249E+00   -.274E-05 -.160E-05 -.826E+00
   0.108E-05 0.233E-05 0.538E+01   -.130E-07 0.561E-06 -.479E+01   -.325E-18 -.136E-18 0.249E+00   -.275E-05 -.159E-05 -.826E+00
   0.184E-04 -.344E-04 0.538E+01   -.329E-06 -.843E-07 -.479E+01   -.434E-18 -.271E-19 0.249E+00   -.274E-05 -.159E-05 -.826E+00
   -.396E-04 0.457E-06 0.538E+01   -.218E-06 -.456E-07 -.479E+01   -.237E-18 0.678E-19 0.249E+00   -.276E-05 -.160E-05 -.826E+00
   -.184E-04 0.357E-04 0.538E+01   0.227E-06 0.438E-06 -.479E+01   -.474E-18 -.271E-18 0.249E+00   -.275E-05 -.158E-05 -.826E+00
   -.154E-05 -.125E-05 0.538E+01   -.164E-06 -.311E-06 -.479E+01   0.813E-19 0.108E-18 0.249E+00   -.275E-05 -.159E-05 -.826E+00
   0.329E-04 0.203E-04 -.183E+04   -.108E-06 -.285E-06 0.183E+04   -.754E-19 -.118E-18 0.278E+00   -.230E-05 -.132E-05 -.683E+00
   0.369E-05 -.851E-06 -.183E+04   -.147E-06 0.565E-06 0.183E+04   0.678E-20 -.610E-19 0.278E+00   -.232E-05 -.132E-05 -.683E+00
   0.897E-06 -.410E-04 -.183E+04   0.268E-06 -.296E-06 0.183E+04   -.593E-19 -.474E-19 0.278E+00   -.230E-05 -.134E-05 -.683E+00
   0.333E-06 0.747E-05 -.183E+04   0.666E-07 -.110E-06 0.183E+04   0.118E-18 -.237E-19 0.278E+00   -.230E-05 -.135E-05 -.683E+00
   -.615E-05 -.550E-06 -.183E+04   -.477E-07 0.634E-06 0.183E+04   0.142E-18 0.271E-19 0.278E+00   -.229E-05 -.132E-05 -.683E+00
   0.257E-04 -.184E-04 -.183E+04   -.435E-06 -.323E-06 0.183E+04   0.217E-18 -.678E-19 0.278E+00   -.231E-05 -.133E-05 -.683E+00
   -.379E-04 0.219E-04 -.183E+04   0.203E-07 -.865E-07 0.183E+04   0.203E-19 -.678E-20 0.278E+00   -.232E-05 -.133E-05 -.683E+00
   -.206E-05 0.359E-04 -.183E+04   0.127E-06 0.407E-06 0.183E+04   0.169E-18 -.407E-19 0.278E+00   -.231E-05 -.134E-05 -.683E+00
   -.312E-04 -.171E-04 -.183E+04   -.280E-07 -.505E-06 0.183E+04   0.525E-19 -.176E-18 0.278E+00   -.230E-05 -.133E-05 -.683E+00
   0.277E-04 0.164E-04 -.367E+04   -.723E-07 -.254E-07 0.367E+04   0.976E-18 -.217E-18 0.115E+01   -.311E-05 -.179E-05 -.755E+00
   0.203E-05 -.278E-04 -.367E+04   -.141E-06 0.873E-06 0.367E+04   0.228E-17 -.108E-17 0.115E+01   -.310E-05 -.179E-05 -.755E+00
   0.350E-04 -.201E-04 -.367E+04   -.437E-06 -.457E-06 0.367E+04   0.239E-17 0.867E-18 0.115E+01   -.313E-05 -.178E-05 -.755E+00
   -.230E-04 0.182E-04 -.367E+04   0.241E-06 0.371E-06 0.367E+04   0.336E-17 0.867E-18 0.115E+01   -.310E-05 -.179E-05 -.755E+00
   0.651E-05 0.588E-05 -.367E+04   -.122E-06 0.428E-06 0.367E+04   0.130E-17 -.867E-18 0.115E+01   -.309E-05 -.178E-05 -.755E+00
   -.121E-05 -.815E-05 -.367E+04   -.918E-06 -.329E-06 0.367E+04   -.163E-17 -.434E-18 0.115E+01   -.310E-05 -.181E-05 -.755E+00
   -.193E-05 0.396E-04 -.367E+04   -.210E-06 -.360E-06 0.367E+04   -.173E-17 0.434E-18 0.115E+01   -.310E-05 -.182E-05 -.755E+00
   -.589E-05 0.623E-05 -.367E+04   0.222E-06 -.349E-07 0.367E+04   0.108E-18 0.195E-17 0.115E+01   -.312E-05 -.178E-05 -.755E+00
   -.204E-04 -.182E-04 -.367E+04   0.178E-05 -.373E-06 0.367E+04   -.217E-18 -.651E-18 0.115E+01   -.308E-05 -.178E-05 -.755E+00
   -.283E-06 -.164E-06 -.549E+04   0.110E-07 -.337E-06 0.549E+04   0.239E-16 -.260E-17 0.219E+01   -.856E-06 -.495E-06 -.190E+00
   0.159E-04 0.311E-04 -.549E+04   -.212E-06 0.306E-06 0.549E+04   0.173E-16 0.434E-17 0.219E+01   -.862E-06 -.497E-06 -.190E+00
   -.141E-04 -.317E-04 -.549E+04   0.523E-06 -.246E-06 0.549E+04   0.160E-16 0.520E-17 0.219E+01   -.855E-06 -.488E-06 -.190E+00
   0.352E-04 0.139E-06 -.549E+04   0.720E-07 -.238E-06 0.549E+04   0.369E-16 0.165E-16 0.219E+01   -.862E-06 -.499E-06 -.190E+00
   0.200E-05 0.287E-05 -.549E+04   -.496E-07 0.475E-06 0.549E+04   0.104E-16 0.954E-17 0.219E+01   -.856E-06 -.494E-06 -.190E+00
   0.155E-04 -.330E-04 -.549E+04   -.319E-06 -.995E-07 0.549E+04   0.169E-16 0.156E-16 0.219E+01   -.855E-06 -.486E-06 -.190E+00
   -.363E-04 0.227E-05 -.549E+04   -.228E-06 -.225E-07 0.549E+04   0.221E-16 0.173E-16 0.219E+01   -.850E-06 -.497E-06 -.190E+00
   -.187E-04 0.326E-04 -.549E+04   0.241E-06 0.364E-06 0.549E+04   0.278E-16 0.226E-16 0.219E+01   -.849E-06 -.497E-06 -.190E+00
   -.287E-05 -.202E-05 -.549E+04   -.178E-06 -.258E-06 0.549E+04   0.282E-16 0.104E-16 0.219E+01   -.857E-06 -.494E-06 -.190E+00
   0.123E-04 0.532E-04 0.201E+02   -.554E-12 0.964E-13 -.364E-11   0.267E-15 0.227E-15 0.885E+01   -.956E-04 -.552E-04 -.287E+02

 POSITION                                       TOTAL-FORCE (eV/Angst)
      0.00000      0.00000      0.00000        -0.000000      0.000000      0.153115
      1.28340      2.22291      0.00000        -0.000000      0.000000      0.153115
     10.26719      4.44582      0.00000        -0.000000      0.000000      0.153115
      2.56680      0.00000      0.00000        -0.000000      0.000000      0.153115
      3.85020      2.22291      0.00000        -0.000000      0.000000      0.153115
      5.13360      4.44582      0.00000        -0.000000      0.000000      0.153115
      5.13360      0.00000      0.00000        -0.000000      0.000000      0.153115
      6.41699      2.22291      0.00000        -0.000000      0.000000      0.153115
      7.70039      4.44582      0.00000        -0.000000      0.000000      0.153115
      1.28340      0.74097      2.09578        -0.000000     -0.000000     -0.157751
      2.56680      2.96388      2.09578        -0.000000     -0.000000     -0.157751
      3.85020      5.18679      2.09578        -0.000000     -0.000000     -0.157751
      3.85020      0.74097      2.09578         0.000000      0.000000     -0.157751
      5.13360      2.96388      2.09578        -0.000000     -0.000000     -0.157751
      6.41699      5.18679      2.09578         0.000000     -0.000000     -0.157751
      6.41699      0.74097      2.09578        -0.000000      0.000000     -0.157751
      7.70039      2.96388      2.09578        -0.000000     -0.000000     -0.157751
      8.98379      5.18679      2.09578         0.000000     -0.000000     -0.157751
      2.56680      1.48194      4.14204        -0.000000     -0.000000      0.012450
      3.85020      3.70485      4.14204        -0.000000     -0.000000      0.012450
      5.13360      5.92777      4.14204        -0.000000     -0.000000      0.012450
      5.13360      1.48194      4.14204         0.000000     -0.000000      0.012450
      6.41699      3.70485      4.14204         0.000000     -0.000000      0.012450
      7.70039      5.92777      4.14204         0.000000     -0.000000      0.012450
      7.70039      1.48194      4.14204        -0.000000      0.000000      0.012450
      8.98379      3.70485      4.14204        -0.000000     -0.000000      0.012450
     10.26719      5.92777      4.14204         0.000000     -0.000000      0.012450
     -0.00000     -0.00000      6.19923         0.000000      0.000000      0.006390
      1.28340      2.22291      6.19923         0.000000      0.000000      0.006390
     10.26719      4.44582      6.19923         0.000000      0.000000      0.006390
      2.56680     -0.00000      6.19923        -0.000000      0.000000      0.006390
      3.85020      2.22291      6.19923        -0.000000      0.000000      0.006390
      5.13360      4.44582      6.19923        -0.000000      0.000000      0.006390
      5.13360     -0.00000      6.19923        -0.000000      0.000000      0.006390
      6.41699      2.22291      6.19923         0.000000      0.000000      0.006390
      7.70039      4.44582      6.19923         0.000000      0.000000      0.006390
      1.28340      0.74097      8.25678         0.000000      0.000000     -0.012477
      2.56680      2.96388      8.25678         0.000000     -0.000000     -0.012477
      3.85020      5.18679      8.25678         0.000000      0.000000     -0.012477
      3.85020      0.74097      8.25678         0.000000      0.000000     -0.012477
      5.13360      2.96388      8.25678         0.000000     -0.000000     -0.012477
      6.41699      5.18679      8.25678         0.000000      0.000000     -0.012477
      6.41699      0.74097      8.25678         0.000000      0.000000     -0.012477
      7.70039      2.96388      8.25678         0.000000     -0.000000     -0.012477
      8.98379      5.18679      8.25678         0.000000     -0.000000     -0.012477
      2.56680      1.48194     10.30627         0.000000      0.000000     -0.003045
      3.85020      3.70485     10.30627         0.000000      0.000000     -0.003045
      5.13360      5.92777     10.30627         0.000000      0.000000     -0.003045
      5.13360      1.48194     10.30627         0.000000      0.000000     -0.003045
      6.41699      3.70485     10.30627         0.000000      0.000000     -0.003045
      7.70039      5.92777     10.30627         0.000000      0.000000     -0.003045
      7.70039      1.48194     10.30627         0.000000     -0.000000     -0.003045
      8.98379      3.70485     10.30627        -0.000000      0.000000     -0.003045
     10.26719      5.92777     10.30627         0.000000      0.000000     -0.003045
     -0.00000     -0.00000     12.36024        -0.000000     -0.000000      0.001318
      1.28340      2.22291     12.36024        -0.000000     -0.000000      0.001318
     10.26719      4.44582     12.36024        -0.000000     -0.000000      0.001318
      2.56680     -0.00000     12.36024         0.000000     -0.000000      0.001318
      3.85020      2.22291     12.36024        -0.000000     -0.000000      0.001318
      5.13360      4.44582     12.36024        -0.000000     -0.000000      0.001318
      5.13360     -0.00000     12.36024        -0.000000     -0.000000      0.001318
      6.41699      2.22291     12.36024         0.000000     -0.000000      0.001318
      7.70039      4.44582     12.36024        -0.000000     -0.000000      0.001318
    total drift:                               -0.000083     -0.000002      0.227856

  FREE ENERGIE OF THE ION-ELECTRON SYSTEM (eV)
  free  energy   TOTEN  =      -252.73230406 eV

  energy  without entropy=     -252.61312400  energy(sigma->0) =     -252.69257737

 d Force = 0.1348513E-02[-0.137E-04, 0.271E-02]  d Energy = 0.2156361E-02-0.808E-03
 d Force =-0.4113989E+03[-0.412E+03,-0.411E+03]  d Ewald  =-0.4113989E+03 0.521E-04

 stress matrix after NEB project (eV)
    -37.35425     -0.00000     -0.00000
     -0.00000    -37.35425     -0.00000
     -0.00000      0.00000     -6.13708
  FORCES: max atom, RMS     0.012477    0.007196
  FORCE total and by dimension    0.057118    0.012477
  Stress total and by dimension   53.182172   37.354248
 Conjugate gradient step on ions:
 trial-energy change:   -0.002156  1 .order   -0.001349   -0.002711    0.000014
  (g-gl).g = 0.440E-02      g.g   = 0.135E-02  gl.gl    = 0.172E-01
 g(Force)  = 0.135E-02   g(Stress)= 0.000E+00 ortho     = 0.227E-03
 gamma     =   0.25640
 trial     =   1.92451
 opt step  =   1.92103  (harmonic =   1.91485) maximal distance =0.00000000
 next E    =  -252.732304   (d E  =  -0.00216)

 reached required accuracy - stopping structural energy minimisation