 vasp.6.3.2 27Jun22 (build Aug 17 2022 15:43:34) complex

 executed on           tv2STDVTST date 2025.02.04  12:26:25

 INCAR:
   ISTART = 0
   ICHARG = 2
   IPIPOL = 3
   IVDW = 11
   ISPIN = 2
   ENCUT = 400
   PREC = Normal
   EDIFF = 2E-04
   GGA = PE
   ISMEAR = 1
   SIGMA = 0.2
   LREAL = .FALSE.
   ISYM = 1
   NSW = 800
   IBRION = 2
   POTIM = 0.5
   ISIF = 2
   EDIFFG = -.03
   NPAR = 4
   LWAVE = .FALSE.
   LCHARG = .FALSE.

 POTCAR:    PAW_PBE Cu 22Jun2005
 POTCAR:    PAW_PBE H 15Jun2001
|           W    W    AA    RRRRR   N    N  II  N    N   GGGG   !!!           |
|           W    W   A  A   R    R  NN   N  II  NN   N  G    G  !!!           |
|           W    W  A    A  R    R  N N  N  II  N N  N  G       !!!           |
|           W WW W  AAAAAA  RRRRR   N  N N  II  N  N N  G  GGG   !            |
|           WW  WW  A    A  R   R   N   NN  II  N   NN  G    G                |
|           W    W  A    A  R    R  N    N  II  N    N   GGGG   !!!           |
|     You use a magnetic or noncollinear calculation, but did not specify     |
|     the initial magnetic moment with the MAGMOM tag. Note that a            |
|     default of 1 will be used for all atoms. This ferromagnetic setup       |
|     may break the symmetry of the crystal, in particular it may rule        |
|     out finding an antiferromagnetic solution. Thence, we recommend         |
|     setting the initial magnetic moment manually or verifying carefully     |
|     that this magnetic setup is desired.                                    |

   TITEL  = PAW_PBE Cu 22Jun2005
   POMASS =   63.546; ZVAL   =   11.000    mass and valenz
   ENMAX  =  295.446; ENMIN  =  221.585 eV

   TITEL  = PAW_PBE H 15Jun2001
   POMASS =    1.000; ZVAL   =    1.000    mass and valenz
   ENMAX  =  250.000; ENMIN  =  200.000 eV

  PAW_PBE Cu 22Jun2005                  :
  PAW_PBE H 15Jun2001                   :

 POSCAR: FCC Cu
  positions in cartesian coordinates
 exchange correlation table for  LEXCH =        8
   RHO(1)=    0.500       N(1)  =     2000
   RHO(2)=  100.500       N(2)  =     4000

 VTST: version 4.2, (08/11/21)

 CHAIN: initializing optimizer

 OPT: Using VASP Conjugate-Gradient optimizer
 CHAIN: Read ICHAIN            0

 POSCAR: FCC Cu
  positions in cartesian coordinates

 ion  position               nearest neighbor table
   1  0.000  0.000  0.000-   3 2.57   4 2.57   3 2.57   4 2.57   2 2.57   2 2.57   2 2.57   2 2.57

   2  0.500  0.500  0.000-   3 2.57   4 2.57   3 2.57   4 2.57   1 2.57   1 2.57   1 2.57   1 2.57

   3  0.000  0.500  0.066-   5 2.52   6 2.52   5 2.52   6 2.52   2 2.57   1 2.57   2 2.57   1 2.57
                             4 2.57   4 2.57   4 2.57   4 2.57
   4  0.500  0.000  0.066-   5 2.52   6 2.52   5 2.52   6 2.52   2 2.57   1 2.57   2 2.57   1 2.57
                             3 2.57   3 2.57   3 2.57   3 2.57
   5  0.000  0.000  0.129-   7 2.52   8 2.52   7 2.52   8 2.52   3 2.52   4 2.52   4 2.52   3 2.52
                             6 2.57   6 2.57   6 2.57   6 2.57
   6  0.500  0.500  0.129-   7 2.52   8 2.52   7 2.52   8 2.52   3 2.52   4 2.52   4 2.52   3 2.52
                             5 2.57   5 2.57   5 2.57   5 2.57
   7  0.000  0.500  0.192-   9 2.50  10 2.50   9 2.50  10 2.50   6 2.52   5 2.52   6 2.52   5 2.52
                             8 2.57   8 2.57   8 2.57   8 2.57
   8  0.500  0.000  0.192-   9 2.50  10 2.50   9 2.50  10 2.50   6 2.52   5 2.52   6 2.52   5 2.52
                             7 2.57   7 2.57   7 2.57   7 2.57
   9  0.000  0.000  0.254-   7 2.50   8 2.50   7 2.50   8 2.50  11 2.53  12 2.53  11 2.53  12 2.53
                            10 2.57  10 2.57  10 2.57  10 2.57
  10  0.500  0.500  0.254-   7 2.50   8 2.50   7 2.50   8 2.50  11 2.53  12 2.53  11 2.53  12 2.53
                             9 2.57   9 2.57   9 2.57   9 2.57
  11  0.000  0.500  0.317-   9 2.53  10 2.53   9 2.53  10 2.53  14 2.53  13 2.53  13 2.53  14 2.53
                            12 2.57  12 2.57  12 2.57  12 2.57
  12  0.500  0.000  0.317-   9 2.53  10 2.53   9 2.53  10 2.53  14 2.53  13 2.53  13 2.53  14 2.53
                            11 2.57  11 2.57  11 2.57  11 2.57
  13  0.000  0.000  0.381-  15 2.52  16 2.52  15 2.52  16 2.52  11 2.53  12 2.53  12 2.53  11 2.53
                            14 2.57  14 2.57  14 2.57  14 2.57
  14  0.500  0.500  0.381-  15 2.52  16 2.52  15 2.52  16 2.52  11 2.53  12 2.53  12 2.53  11 2.53
                            13 2.57  13 2.57  13 2.57  13 2.57
  15  0.000  0.500  0.444-  13 2.52  14 2.52  13 2.52  14 2.52  16 2.57  16 2.57  16 2.57  16 2.57

[...]

  17  1.000  1.000  0.502-  18 0.75
  18  1.000  0.145  0.521-  17 0.75

  LATTYP: Found a simple tetragonal cell.
 ALAT       =     3.6300001144
 C/A-ratio  =     7.6322311434

  Lattice vectors:

 A1 = (   3.6300001144,   0.0000000000,   0.0000000000)
 A2 = (   0.0000000000,   3.6300001144,   0.0000000000)
 A3 = (   0.0000000000,   0.0000000000,  27.7049999237)

Analysis of symmetry for initial positions (statically):
 Subroutine PRICEL returns:
 Original cell was already a primitive cell.

 Routine SETGRP: Setting up the symmetry group for a
 simple tetragonal supercell.

 Subroutine GETGRP returns: Found  2 space group operations
 (whereof  2 operations were pure point group operations)
 out of a pool of 16 trial point group operations.

The static configuration has the point symmetry C_1h.

Analysis of symmetry for dynamics (positions and initial velocities):
 Subroutine PRICEL returns:
 Original cell was already a primitive cell.

[...]

The dynamic configuration has the point symmetry C_1h.

Analysis of structural, dynamic, and magnetic symmetry:
 Subroutine PRICEL returns:
 Original cell was already a primitive cell.

 Routine SETGRP: Setting up the symmetry group for a
 simple tetragonal supercell.

 Subroutine GETGRP returns: Found  2 space group operations
 (whereof  2 operations were pure point group operations)
 out of a pool of 16 trial point group operations.

The overall configuration has the point symmetry C_1h.

 Subroutine INISYM returns: Found  2 space group operations
 (whereof  2 operations are pure point group operations),
 and found     1 'primitive' translations

                                     Primitive cell

  volume of cell :     365.0660

  direct lattice vectors                    reciprocal lattice vectors
     3.630000114  0.000000000  0.000000000     0.275482085  0.000000000  0.000000000
     0.000000000  3.630000114  0.000000000     0.000000000  0.275482085  0.000000000
     0.000000000  0.000000000 27.704999924     0.000000000  0.000000000  0.036094568

  length of vectors
     3.630000114  3.630000114 27.704999924     0.275482085  0.275482085  0.036094568

  position of ions in fractional coordinates (direct lattice)
     0.000000000  0.000000000  0.000000000
     0.500000000  0.500000000  0.000000000
     0.000000000  0.500000000  0.065511642
     0.500000000  0.000000000  0.065511642
     0.000000000  0.000000000  0.128761197
     0.500000000  0.500000000  0.128761197
     0.000000000  0.500000000  0.191931868
     0.500000000  0.000000000  0.191931868
     0.000000000  0.000000000  0.254065502
     0.500000000  0.500000000  0.254065502
     0.000000000  0.500000000  0.317478554
     0.500000000  0.000000000  0.317478554
     0.000000000  0.000000000  0.381322325
     0.500000000  0.500000000  0.381322325
     0.000000000  0.500000000  0.444400750
     0.500000000  0.000000000  0.444400750
     1.000000000  1.000000000  0.501506579
     1.000000000  0.145317257  0.520546524

  ion indices of the primitive-cell ions
   primitive index   ion index
                 1           1
                 2           2
                 3           3
                 4           4
                 5           5
                 6           6
                 7           7
                 8           8
                 9           9
                10          10
                11          11
                12          12
                13          13
                14          14
                15          15
                16          16
                17          17
                18          18

 KPOINTS: Auto-mesh

Automatic generation of k-mesh.
 Grid dimensions read from file:
 generate k-points for:    3    3    1

 Generating k-lattice:

  Cartesian coordinates                     Fractional coordinates (reciprocal lattice)
     0.091827362  0.000000000  0.000000000     0.333333333  0.000000000  0.000000000
     0.000000000  0.091827362  0.000000000     0.000000000  0.333333333  0.000000000
     0.000000000  0.000000000  0.036094568     0.000000000  0.000000000  1.000000000

  Length of vectors
     0.091827362  0.091827362  0.036094568

  Shift w.r.t. Gamma in fractional coordinates (k-lattice)
     0.000000000  0.000000000  0.000000000

 Subroutine IBZKPT returns following result:

 Found      4 irreducible k-points:

 Following reciprocal coordinates:
            Coordinates               Weight
  0.000000  0.000000  0.000000      1.000000
  0.333333  0.000000  0.000000      2.000000
  0.000000  0.333333  0.000000      2.000000
  0.333333  0.333333  0.000000      4.000000

 Following cartesian coordinates:
            Coordinates               Weight
  0.000000  0.000000  0.000000      1.000000
  0.091827  0.000000  0.000000      2.000000
  0.000000  0.091827  0.000000      2.000000
  0.091827  0.091827  0.000000      4.000000

 SYSTEM =  unknown system
 POSCAR =  FCC Cu

 Startparameter for this run:
   NWRITE =      2    write-flag & timer
   PREC   = normal    normal or accurate (medium, high low for compatibility)
   ISTART =      0    job   : 0-new  1-cont  2-samecut
   ICHARG =      2    charge: 1-file 2-atom 10-const
   ISPIN  =      2    spin polarized calculation?
   LNONCOLLINEAR =      F non collinear calculations
   LSORBIT =      F    spin-orbit coupling
   INIWAV =      1    electr: 0-lowe 1-rand  2-diag
   LASPH  =      F    aspherical Exc in radial PAW
 Electronic Relaxation 1
   ENCUT  =  400.0 eV  29.40 Ry    5.42 a.u.   5.92  5.92 45.18*2*pi/ulx,y,z
   ENINI  =  400.0     initial cutoff
   ENAUG  =  587.0 eV  augmentation charge cutoff
   NELM   =     60;   NELMIN=  2; NELMDL= -5     # of ELM steps
   EDIFF  = 0.2E-03   stopping-criterion for ELM
   LREAL  =      F    real-space projection
   NLSPLINE    = F    spline interpolate recip. space projectors
   LCOMPAT=      F    compatible to vasp.4.4
   GGA_COMPAT  = T    GGA compatible to vasp.4.4-vasp.4.6
   LMAXPAW     = -100 max onsite density
   LMAXMIX     =    2 max onsite mixed and CHGCAR
   VOSKOWN=      0    Vosko Wilk Nusair interpolation
   ROPT   =    0.00000   0.00000
 Ionic relaxation
   EDIFFG = -.3E-01   stopping-criterion for IOM
   NSW    =    800    number of steps for IOM
   NBLOCK =      1;   KBLOCK =    800    inner block; outer block
   IBRION =      2    ionic relax: 0-MD 1-quasi-New 2-CG
   NFREE  =      1    steps in history (QN), initial steepest desc. (CG)
   ISIF   =      2    stress and relaxation
   IWAVPR =     11    prediction:  0-non 1-charg 2-wave 3-comb
   ISYM   =      1    0-nonsym 1-usesym 2-fastsym
[...]
  Stress total and by dimension    6.069035    4.256917
 Conjugate gradient step on ions:
 trial-energy change:    0.000121  1 .order    0.000021   -0.001774    0.001817
  (g-gl).g = 0.187E-02      g.g   = 0.153E-02  gl.gl    = 0.231E-02
 g(Force)  = 0.153E-02   g(Stress)= 0.000E+00 ortho     =-0.700E-04
 gamma     =   0.80954
 trial     =   1.20285
 opt step  =   0.59424  (harmonic =   0.59424) maximal distance =0.00500850
 next E    =   -70.023633   (d E  =  -0.00044)

[...]

 d Force =-0.6640440E-04[-0.142E-03, 0.919E-05]  d Energy =-0.8335235E-04 0.169E-04
 d Force = 0.1831150E+01[ 0.183E+01, 0.183E+01]  d Ewald  = 0.1831150E+01-0.116E-08

[...]

 d Force = 0.3929473E-04[-0.548E-04, 0.133E-03]  d Energy = 0.4558533E-04-0.629E-05
 d Force =-0.1719821E+01[-0.172E+01,-0.172E+01]  d Ewald  =-0.1719821E+01 0.130E-08

[...]

 d Force = 0.3088802E-05[-0.212E-04, 0.274E-04]  d Energy = 0.3600669E-04-0.329E-04
 d Force = 0.8599290E+00[ 0.860E+00, 0.860E+00]  d Ewald  = 0.8599290E+00-0.568E-09

[...]

 Broyden mixing:
  rms(total) = 0.25462E-02    rms(broyden)= 0.22101E-02
  rms(prec ) = 0.34669E-02
  weight for this iteration     100.00
  WARNING: grid for Broyden might be to small

[...]

 d Force = 0.3996215E-05[-0.127E-05, 0.926E-05]  d Energy =-0.2892930E-04 0.329E-04
 d Force =-0.3753072E+00[-0.375E+00,-0.375E+00]  d Ewald  =-0.3753072E+00 0.582E-09

[...]

 d Force = 0.7707328E-07[ 0.202E-08, 0.152E-06]  d Energy = 0.1287039E-04-0.128E-04
 d Force = 0.4512526E-01[ 0.451E-01, 0.451E-01]  d Ewald  = 0.4512526E-01-0.189E-09

 stress matrix after NEB project (eV)
     -4.54591      0.00000      0.00000
      0.00000     -4.55014     -0.04778
      0.00000     -0.04778     -1.22632
  FORCES: max atom, RMS     0.038042    0.020932
  FORCE total and by dimension    0.088805    0.037896
  Stress total and by dimension    6.548091    4.550140

[...]

 eigenvalue-minimisations  :  2008
 total energy-change (2. order) : 0.4048606E-03  (-0.1947886E-03)
 number of electron     178.0002332 magnetization       0.0000000
 augmentation part      112.2130554 magnetization       0.0000000

 Broyden mixing:
  rms(total) = 0.24481E-02    rms(broyden)= 0.23866E-02
  rms(prec ) = 0.26696E-02
  weight for this iteration     100.00

 eigenvalues of (default mixing * dielectric matrix)
  average eigenvalue GAMMA=   0.3164
  0.5692  0.0636

[...]

--------------------------------------- Iteration     63(   4)  ---------------------------------------

 eigenvalue-minimisations  :  1256
 total energy-change (2. order) :-0.4824086E-04  (-0.4228340E-04)
 number of electron     178.0002332 magnetization       0.0000000
 augmentation part      112.2130554 magnetization       0.0000000

 Free energy of the ion-electron system (eV)
  alpha Z        PSCENC =       521.04204123
  Ewald energy   TEWEN  =    103060.84805849
  -Hartree energ DENC   =   -124717.97021797
  -exchange      EXHF   =         0.00000000
  -V(xc)+E(xc)   XCENC  =       719.41464059
  PAW double counting   =     21097.90775307   -22824.53144329
  entropy T*S    EENTRO =        -0.02041527
  eigenvalues    EBANDS =      -200.08557634
  atomic energy  EATOM  =     22280.27950853
  Solvation  Ediel_sol  =         0.00000000
  free energy    TOTEN  =       -63.11565094 eV

  energy without entropy =      -63.09523568  energy(sigma->0) =      -63.10884586

 average (electrostatic) potential at core
  the test charge radii are     0.9430  0.5201
  (the norm of the test charge is              1.0000)
       1 -69.1521       2 -69.1519       3 -69.5034       4 -69.5035       5 -69.3949
       6 -69.3948       7 -69.3673       8 -69.3671       9 -69.3657      10 -69.3672
      11 -69.3919      12 -69.3915      13 -69.5012      14 -69.5100      15 -69.1787
      16 -69.1758      17 -35.2712      18 -35.2139

 E-fermi :   1.9489     XC(G=0):  -7.5300     alpha+bet : -7.0999

 Fermi energy:         1.9488886504

[...]

 k-point     4 :       0.3333    0.3333    0.0000
  band No.  band energies     occupation
      1      -4.9922      1.00000
      2      -4.6127      1.00000
      3      -4.1037      1.00000
      4      -3.9652      1.00000
      5      -3.4613      1.00000
      6      -2.9672      1.00000
      7      -2.8750      1.00000
      8      -2.8732      1.00000
      9      -2.8247      1.00000
     10      -2.8236      1.00000
     11      -2.7812      1.00000
     12      -2.7657      1.00000
     13      -2.5799      1.00000
     14      -2.3926      1.00000
     15      -2.3705      1.00000
     16      -2.3206      1.00000
     17      -2.2260      1.00000
     18      -2.0273      1.00000
     19      -1.8555      1.00000
     20      -1.8553      1.00000
     21      -1.8255      1.00000
     22      -1.7130      1.00000
     23      -1.7047      1.00000
     24      -1.5815      1.00000
     25      -1.5810      1.00000
     26      -1.5261      1.00000
     27      -1.5233      1.00000
     28      -1.3983      1.00000
     29      -1.3975      1.00000
     30      -1.3560      1.00000
     31      -1.3513      1.00000
     32      -1.3447      1.00000
     33      -1.2447      1.00000
     34      -1.2397      1.00000
     35      -1.2020      1.00000
     36      -1.1532      1.00000
     37      -1.1470      1.00000
     38      -1.1406      1.00000
     39      -1.1313      1.00000
     40      -1.0847      1.00000
     41      -1.0262      1.00000
     42      -1.0215      1.00000
     43      -1.0190      1.00000
     44      -1.0093      1.00000
     45      -1.0077      1.00000
     46      -0.9939      1.00000
     47      -0.9374      1.00000
     48      -0.9198      1.00000
     49      -0.9120      1.00000
     50      -0.8315      1.00000
     51      -0.8179      1.00000
     52      -0.8143      1.00000
     53      -0.7987      1.00000
     54      -0.7775      1.00000
     55      -0.7654      1.00000
     56      -0.6593      1.00000
     57      -0.6574      1.00000
     58      -0.6023      1.00000
     59      -0.5716      1.00000
     60      -0.5331      1.00000
[...]
    102       6.8533     -0.00000
    103       6.8620     -0.00000
    104       6.9916     -0.00000
    105       7.3547     -0.00000
    106       7.5085      0.00000
    107       7.9592      0.00000
    108       8.2901      0.00000
    109       8.5032      0.00000
    110       8.8371      0.00000
    111       9.1028      0.00000
    112       9.5702      0.00000
    113       9.7480      0.00000
    114       9.9552      0.00000
    115      10.3194      0.00000
    116      10.5788      0.00000
 Fermi energy:         1.9488886504

 spin component 2

[...]

 k-point     4 :       0.3333    0.3333    0.0000
  band No.  band energies     occupation
      1      -4.9922      1.00000
      2      -4.6127      1.00000
      3      -4.1037      1.00000
      4      -3.9652      1.00000
      5      -3.4613      1.00000
      6      -2.9672      1.00000
      7      -2.8750      1.00000
      8      -2.8732      1.00000
      9      -2.8247      1.00000
     10      -2.8236      1.00000
     11      -2.7812      1.00000
     12      -2.7657      1.00000
     13      -2.5799      1.00000
     14      -2.3926      1.00000
     15      -2.3705      1.00000
     16      -2.3206      1.00000
     17      -2.2260      1.00000
     18      -2.0273      1.00000
     19      -1.8555      1.00000
     20      -1.8553      1.00000
     21      -1.8255      1.00000
     22      -1.7130      1.00000
     23      -1.7047      1.00000
     24      -1.5815      1.00000
     25      -1.5810      1.00000
     26      -1.5261      1.00000
     27      -1.5233      1.00000
     28      -1.3983      1.00000
     29      -1.3975      1.00000
     30      -1.3560      1.00000
     31      -1.3513      1.00000
     32      -1.3447      1.00000
     33      -1.2447      1.00000
     34      -1.2397      1.00000
     35      -1.2020      1.00000
     36      -1.1532      1.00000
     37      -1.1470      1.00000
     38      -1.1406      1.00000
     39      -1.1313      1.00000
     40      -1.0847      1.00000
     41      -1.0262      1.00000
     42      -1.0215      1.00000
     43      -1.0190      1.00000
     44      -1.0093      1.00000
     45      -1.0077      1.00000
     46      -0.9939      1.00000
     47      -0.9374      1.00000
     48      -0.9198      1.00000
     49      -0.9120      1.00000
     50      -0.8315      1.00000
     51      -0.8179      1.00000
     52      -0.8143      1.00000
     53      -0.7987      1.00000
     54      -0.7775      1.00000
     55      -0.7654      1.00000
     56      -0.6593      1.00000
     57      -0.6574      1.00000
     58      -0.6023      1.00000
     59      -0.5716      1.00000
     60      -0.5331      1.00000
[...]
    102       6.8533     -0.00000
    103       6.8620     -0.00000
    104       6.9916     -0.00000
    105       7.3547     -0.00000
    106       7.5085      0.00000
    107       7.9592      0.00000
    108       8.2901      0.00000
    109       8.5032      0.00000
    110       8.8371      0.00000
    111       9.1028      0.00000
    112       9.5702      0.00000
    113       9.7480      0.00000
    114       9.9552      0.00000
    115      10.3194      0.00000
    116      10.5788      0.00000

[...]

 soft charge-density along one line, spin component           2
         0         1         2         3         4         5         6         7         8         9
 total charge-density along one line

------------------------ aborting loop because EDIFF is reached ----------------------------------------

         DFTD3 V3.0 Rev 1
 Edisp (eV)   -6.90828

 E6    (eV) :    -2.8348
 E8    (eV) :    -4.0735
 % E8        : 58.97

  FORCE on cell =-STRESS in cart. coord.  units (eV):
  Direction    XX          YY          ZZ          XY          YZ          ZX
  Alpha Z   521.04204   521.04204   521.04204
  Ewald  114785.72910114786.38788************     0.00000     0.31814    -0.00000
  Hartree121053.12935121053.23818************    -0.00000    -1.22138    -0.00000
  E(xc)   -1035.00135 -1034.99423 -1035.66059    -0.00000     0.03163     0.00000
  Local  ************************241788.76407    -0.00000     2.12445     0.00000
  n-local  -342.15899  -342.18661  -343.67519     6.22455    -0.17868    -0.00232
  augment  1514.12183  1514.11348  1518.68922    -0.00000     0.01824    -0.00000
  Kinetic  1458.41816  1458.19967  1455.77332    -5.35138    -1.14207     0.00798
  Fock        0.00000     0.00000     0.00000     0.00000     0.00000     0.00000
  vdW        -8.38692    -8.38105    -6.74322     0.00000     0.00019     0.00000
  Total      -4.46948    -4.47341    -1.15969     0.00000    -0.04947     0.00000
  in kB     -19.61537   -19.63261    -5.08955     0.00000    -0.21709     0.00000

 VOLUME and BASIS-vectors are now :
  energy-cutoff  :      400.00
  volume of cell :      365.07
      direct lattice vectors                 reciprocal lattice vectors
     3.630000114  0.000000000  0.000000000     0.275482085  0.000000000  0.000000000
     0.000000000  3.630000114  0.000000000     0.000000000  0.275482085  0.000000000
     0.000000000  0.000000000 27.704999924     0.000000000  0.000000000  0.036094568

  length of vectors
     3.630000114  3.630000114 27.704999924     0.275482085  0.275482085  0.036094568

 FORCES acting on ions
    electron-ion (+dipol)            ewald-force                    non-local-force                 convergence-correction
   -.522E-13 0.400E+00 0.568E+04   -.962E-07 -.394E+00 -.568E+04   0.000E+00 0.525E-02 -.310E+01   0.217E-10 -.119E-01 0.107E-01
   0.772E-06 -.385E+00 0.568E+04   0.962E-07 0.379E+00 -.568E+04   0.000E+00 0.246E-02 -.307E+01   -.220E-10 0.108E-01 0.120E-01
   -.519E-13 0.122E+00 0.413E+04   -.130E-06 -.119E+00 -.413E+04   0.000E+00 0.223E-01 -.106E+01   0.454E-10 -.200E-01 -.289E-01
   0.751E-06 -.242E+00 0.413E+04   0.130E-06 0.239E+00 -.413E+04   0.000E+00 -.273E-01 -.107E+01   -.428E-10 0.354E-01 -.289E-01
   -.293E-13 -.833E+00 0.251E+04   -.131E-06 0.813E+00 -.251E+04   0.000E+00 -.546E-01 -.475E-01   0.335E-11 0.899E-01 0.521E-01
   0.752E-06 0.767E+00 0.251E+04   0.131E-06 -.755E+00 -.251E+04   0.000E+00 0.457E-01 -.347E-02   -.204E-10 -.598E-01 0.493E-01
   -.244E-13 -.147E-01 0.880E+03   -.134E-06 0.879E-02 -.880E+03   0.000E+00 0.264E-01 -.839E-01   -.211E-10 -.151E-01 0.111E+00
   0.749E-06 0.637E-01 0.880E+03   0.134E-06 -.594E-01 -.880E+03   0.000E+00 -.196E-01 -.861E-01   -.103E-10 0.162E-01 0.108E+00
   -.346E-13 0.584E-01 -.765E+03   -.134E-06 -.574E-01 0.764E+03   0.000E+00 -.404E-02 0.588E-01   -.389E-11 0.403E-02 0.169E+00
   0.749E-06 -.850E-01 -.765E+03   0.134E-06 0.848E-01 0.765E+03   0.000E+00 0.612E-02 0.593E-01   0.135E-10 0.952E-04 0.189E+00
   -.318E-13 0.394E+00 -.240E+04   -.132E-06 -.379E+00 0.240E+04   0.000E+00 0.138E-01 0.373E-01   0.644E-11 -.295E-01 0.120E+00
   0.751E-06 -.450E+00 -.240E+04   0.132E-06 0.436E+00 0.240E+04   0.000E+00 -.139E-01 0.310E-01   -.117E-10 0.341E-01 0.119E+00
   -.310E-13 0.433E-01 -.402E+04   -.131E-06 -.296E-01 0.402E+04   0.000E+00 -.117E-01 0.109E+01   0.791E-11 -.377E-02 0.166E+00
   0.750E-06 0.127E-01 -.402E+04   0.131E-06 -.316E-01 0.402E+04   0.000E+00 0.315E-01 0.120E+01   0.399E-10 -.854E-02 0.613E-01
   -.458E-13 -.918E+00 -.558E+04   -.954E-07 0.101E+01 0.558E+04   0.000E+00 -.781E-01 0.340E+01   0.302E-11 -.206E-01 -.594E-01
   0.770E-06 0.557E+00 -.558E+04   0.953E-07 -.623E+00 0.558E+04   0.000E+00 0.661E-01 0.337E+01   0.154E-10 0.230E-02 -.729E-01
   0.317E-07 0.375E+01 -.443E+03   -.366E-09 -.459E+01 0.439E+03   0.000E+00 0.862E+00 0.481E+01   0.250E-11 0.369E-03 -.840E-02
   0.324E-07 -.324E+01 -.422E+03   -.162E-09 0.407E+01 0.427E+03   0.000E+00 -.851E+00 -.482E+01   0.720E-12 -.182E-04 -.108E-01
   0.611E-05 0.575E-02 -.168E+01   0.960E-13 0.373E-13 -.381E-11   0.000E+00 0.218E-01 0.713E+00   0.277E-10 0.240E-01 0.959E+00

 POSITION                                       TOTAL-FORCE (eV/Angst)
      0.00000     -0.00706     -0.03948         0.000000     -0.003741      0.009623
      1.81500      1.80672     -0.03933         0.000000      0.004197      0.010148
      0.00000      1.80732      1.70971         0.000000      0.002135      0.000451
      1.81500     -0.00782      1.70968         0.000000      0.002252      0.000283
      0.00000     -0.00821      3.47066         0.000000      0.011436     -0.003990
      1.81500      1.80907      3.47047         0.000000     -0.005224     -0.001782
      0.00000      1.80860      5.22097         0.000000      0.002411     -0.004378
      1.81500     -0.00569      5.22100         0.000000     -0.001858     -0.004891
      0.00000     -0.00512      6.93926         0.000000     -0.001783     -0.008276
      1.81500      1.80939      6.93982         0.000000      0.003022     -0.004474
      0.00000      1.81131      8.68686         0.000000     -0.003369     -0.003120
      1.81500     -0.00525      8.68665         0.000000      0.003582     -0.003320
      0.00000     -0.00271     10.43786         0.000000     -0.004312      0.015221
      1.81500      1.81130     10.44512         0.000000      0.000980     -0.006597
      0.00000      1.81362     12.18072         0.000000     -0.004324     -0.005745
      1.81500     -0.00327     12.18120         0.000000     -0.000365     -0.008079
      3.63000      0.24201     14.58516         0.000000      0.004577      0.013043
      3.63000      0.37330     15.33184         0.000000     -0.009614      0.005885
    total drift:                                0.000006      0.051581     -0.005883

  FREE ENERGIE OF THE ION-ELECTRON SYSTEM (eV)
  free  energy   TOTEN  =       -70.02393088 eV

  energy  without entropy=      -70.00351562  energy(sigma->0) =      -70.01712580

 d Force = 0.2738706E-03[ 0.144E-03, 0.404E-03]  d Energy = 0.3054580E-03-0.316E-04
 d Force =-0.5506332E+01[-0.551E+01,-0.550E+01]  d Ewald  =-0.5506333E+01 0.572E-06

 stress matrix after NEB project (eV)
     -4.46948      0.00000      0.00000
      0.00000     -4.47341     -0.04947
      0.00000     -0.04947     -1.15969
  FORCES: max atom, RMS     0.015821    0.008636
  FORCE total and by dimension    0.036639    0.015221
  Stress total and by dimension    6.429421    4.473411
 Conjugate gradient step on ions:
 trial-energy change:   -0.000305  1 .order   -0.000274   -0.000404   -0.000144
  (g-gl).g = 0.211E-03      g.g   = 0.380E-03  gl.gl    = 0.153E-02
 g(Force)  = 0.380E-03   g(Stress)= 0.000E+00 ortho     = 0.189E-05
 gamma     =   0.13749
 trial     =   1.06033
 opt step  =   1.64866  (harmonic =   1.64866) maximal distance =0.00331318
 next E    =   -70.023939   (d E  =  -0.00031)

 reached required accuracy - stopping structural energy minimisation