 vasp.6.3.2 27Jun22 (build Aug 17 2022 15:43:34) complex

 executed on           tv2STDVTST date 2025.01.21  16:01:05

 INCAR:
   ISTART = 0
   ICHARG = 2
   IPIPOL = 3
   IVDW = 11
   IDIPOL = 3
   IVDW = 11
   ISPIN = 2
   ENCUT = 400
   PREC = Normal
   EDIFF = 2E-04
   GGA = PE
   ISMEAR = 1
   SIGMA = 0.2
   LREAL = .FALSE.
   ISYM = 1
   NSW = 800
   IBRION = 2
   POTIM = 0.5
   ISIF = 2
   EDIFFG = -.03
   NPAR = 4
   LWAVE = .FALSE.
   LCHARG = .FALSE.

 POTCAR:    PAW_PBE Cu 22Jun2005
|           W    W    AA    RRRRR   N    N  II  N    N   GGGG   !!!           |
|           W    W   A  A   R    R  NN   N  II  NN   N  G    G  !!!           |
|           W    W  A    A  R    R  N N  N  II  N N  N  G       !!!           |
|           W WW W  AAAAAA  RRRRR   N  N N  II  N  N N  G  GGG   !            |
|           WW  WW  A    A  R   R   N   NN  II  N   NN  G    G                |
|           W    W  A    A  R    R  N    N  II  N    N   GGGG   !!!           |
|     You use a magnetic or noncollinear calculation, but did not specify     |
|     the initial magnetic moment with the MAGMOM tag. Note that a            |
|     default of 1 will be used for all atoms. This ferromagnetic setup       |
|     may break the symmetry of the crystal, in particular it may rule        |
|     out finding an antiferromagnetic solution. Thence, we recommend         |
|     setting the initial magnetic moment manually or verifying carefully     |
|     that this magnetic setup is desired.                                    |

   TITEL  = PAW_PBE Cu 22Jun2005
   POMASS =   63.546; ZVAL   =   11.000    mass and valenz
   ENMAX  =  295.446; ENMIN  =  221.585 eV

  PAW_PBE Cu 22Jun2005                  :

 POSCAR: FCC Cu
  positions in cartesian coordinates
  velocities in cartesian coordinates
 exchange correlation table for  LEXCH =        8
   RHO(1)=    0.500       N(1)  =     2000
   RHO(2)=  100.500       N(2)  =     4000

 VTST: version 4.2, (08/11/21)

 CHAIN: initializing optimizer

 OPT: Using VASP Conjugate-Gradient optimizer
 CHAIN: Read ICHAIN            0

 POSCAR: FCC Cu
  positions in cartesian coordinates
  velocities in cartesian coordinates

 ion  position               nearest neighbor table
   1  0.000  0.000  0.000-   2 2.57   2 2.57   2 2.57   2 2.57   3 2.57
   2  0.500  0.500  0.057-   3 2.57   3 2.57   3 2.57   1 2.57   3 2.57   1 2.57   1 2.57   1 2.57
                             4 2.57
   3  0.000  0.000  0.113-   2 2.57   2 2.57   2 2.57   4 2.57   2 2.57   4 2.57   4 2.57   4 2.57
                             1 2.57   5 2.57
   4  0.500  0.500  0.170-   3 2.57   5 2.57   3 2.57   5 2.57   3 2.57   5 2.57   3 2.57   5 2.57
                             2 2.57   6 2.57
   5  0.000  0.000  0.226-   6 2.57   6 2.57   6 2.57   4 2.57   6 2.57   4 2.57   4 2.57   4 2.57
                             7 2.57   3 2.57
   6  0.500  0.500  0.283-   5 2.57   5 2.57   5 2.57   7 2.57   5 2.57   7 2.57   7 2.57   7 2.57
                             4 2.57
   7  0.000  0.000  0.339-   6 2.57   6 2.57   6 2.57   6 2.57   5 2.57

  LATTYP: Found a simple orthorhombic cell.
 ALAT       =     2.5667977333
 B/A-ratio  =     1.4142135422
 C/A-ratio  =     8.8438573502

  Lattice vectors:

 A1 = (   0.0000000000,  -2.5667977333,   0.0000000000)
 A2 = (   3.6300001144,   0.0000000000,   0.0000000000)
 A3 = (   0.0000000000,   0.0000000000,  22.7003930000)

Analysis of symmetry for initial positions (statically):
 Subroutine PRICEL returns:
 Original cell was already a primitive cell.

 Routine SETGRP: Setting up the symmetry group for a
 simple orthorhombic supercell.

 Subroutine GETGRP returns: Found  8 space group operations
 (whereof  4 operations were pure point group operations)
 out of a pool of  8 trial point group operations.

The static configuration has the point symmetry C_2v.
 The point group associated with its full space group is D_2h.

Analysis of symmetry for dynamics (positions and initial velocities):
 Subroutine PRICEL returns:
 Original cell was already a primitive cell.

[...]

The dynamic configuration has the point symmetry C_2v.
 The point group associated with its full space group is D_2h.

Analysis of constrained symmetry for selective dynamics:
 Subroutine PRICEL returns:
 Original cell was already a primitive cell.

[...]

The constrained configuration has the point symmetry C_2v.

Analysis of structural, dynamic, and magnetic symmetry:
 Subroutine PRICEL returns:
 Original cell was already a primitive cell.

 Routine SETGRP: Setting up the symmetry group for a
 simple orthorhombic supercell.

 Subroutine GETGRP returns: Found  4 space group operations
 (whereof  4 operations were pure point group operations)
 out of a pool of  8 trial point group operations.

The overall configuration has the point symmetry C_2v.

 Subroutine INISYM returns: Found  4 space group operations
 (whereof  4 operations are pure point group operations),
 and found     1 'primitive' translations

                                     Primitive cell

  volume of cell :     211.5104

  direct lattice vectors                    reciprocal lattice vectors
     3.630000114  0.000000000  0.000000000     0.275482085  0.000000000  0.000000000
     0.000000000  2.566797733  0.000000000     0.000000000  0.389590495  0.000000000
     0.000000000  0.000000000 22.700393000     0.000000000  0.000000000  0.044052101

  length of vectors
     3.630000114  2.566797733 22.700393000     0.275482085  0.389590495  0.044052101

  position of ions in fractional coordinates (direct lattice)
     0.000000000  0.000000000  0.000000000
     0.500000000  0.500000000  0.056536416
     0.000000000  0.000000000  0.113072832
     0.500000000  0.500000000  0.169609249
     0.000000000  0.000000000  0.226145665
     0.500000000  0.500000000  0.282682081
     0.000000000  0.000000000  0.339218497

  ion indices of the primitive-cell ions
   primitive index   ion index
                 1           1
                 2           2
                 3           3
                 4           4
                 5           5
                 6           6
                 7           7

 KPOINTS: Auto-mesh

Automatic generation of k-mesh.
 Grid dimensions read from file:
 generate k-points for:    3    3    1

 Generating k-lattice:

  Cartesian coordinates                     Fractional coordinates (reciprocal lattice)
     0.091827362  0.000000000  0.000000000     0.333333333  0.000000000  0.000000000
     0.000000000  0.129863498  0.000000000     0.000000000  0.333333333  0.000000000
     0.000000000  0.000000000  0.044052101     0.000000000  0.000000000  1.000000000

  Length of vectors
     0.091827362  0.129863498  0.044052101

  Shift w.r.t. Gamma in fractional coordinates (k-lattice)
     0.000000000  0.000000000  0.000000000

 Subroutine IBZKPT returns following result:

 Found      4 irreducible k-points:

 Following reciprocal coordinates:
            Coordinates               Weight
  0.000000  0.000000  0.000000      1.000000
  0.333333  0.000000  0.000000      2.000000
  0.000000  0.333333  0.000000      2.000000
  0.333333  0.333333  0.000000      4.000000

 Following cartesian coordinates:
            Coordinates               Weight
  0.000000  0.000000  0.000000      1.000000
  0.091827  0.000000  0.000000      2.000000
  0.000000  0.129863  0.000000      2.000000
  0.091827  0.129863  0.000000      4.000000

 SYSTEM =  unknown system
 POSCAR =  FCC Cu

 Startparameter for this run:
   NWRITE =      2    write-flag & timer
   PREC   = normal    normal or accurate (medium, high low for compatibility)
   ISTART =      0    job   : 0-new  1-cont  2-samecut
   ICHARG =      2    charge: 1-file 2-atom 10-const
   ISPIN  =      2    spin polarized calculation?
   LNONCOLLINEAR =      F non collinear calculations
   LSORBIT =      F    spin-orbit coupling
   INIWAV =      1    electr: 0-lowe 1-rand  2-diag
   LASPH  =      F    aspherical Exc in radial PAW
 Electronic Relaxation 1
   ENCUT  =  400.0 eV  29.40 Ry    5.42 a.u.   5.92  4.19 37.02*2*pi/ulx,y,z
   ENINI  =  400.0     initial cutoff
   ENAUG  =  587.0 eV  augmentation charge cutoff
   NELM   =     60;   NELMIN=  2; NELMDL= -5     # of ELM steps
   EDIFF  = 0.2E-03   stopping-criterion for ELM
   LREAL  =      F    real-space projection
   NLSPLINE    = F    spline interpolate recip. space projectors
   LCOMPAT=      F    compatible to vasp.4.4
   GGA_COMPAT  = T    GGA compatible to vasp.4.4-vasp.4.6
   LMAXPAW     = -100 max onsite density
   LMAXMIX     =    2 max onsite mixed and CHGCAR
   VOSKOWN=      0    Vosko Wilk Nusair interpolation
   ROPT   =    0.00000
 Ionic relaxation
   EDIFFG = -.3E-01   stopping-criterion for IOM
   NSW    =    800    number of steps for IOM
   NBLOCK =      1;   KBLOCK =    800    inner block; outer block
   IBRION =      2    ionic relax: 0-MD 1-quasi-New 2-CG
   NFREE  =      1    steps in history (QN), initial steepest desc. (CG)
   ISIF   =      2    stress and relaxation
   IWAVPR =     11    prediction:  0-non 1-charg 2-wave 3-comb
   ISYM   =      1    0-nonsym 1-usesym 2-fastsym
   LCORR  =      T    Harris-Foulkes like correction to forces

   POTIM  = 0.5000    time-step for ionic-motion
   TEIN   =    0.0    initial temperature
   TEBEG  =    0.0;   TEEND  =   0.0 temperature during run
   SMASS  =  -3.00    Nose mass-parameter (am)
   estimated Nose-frequenzy (Omega)   =  0.10E-29 period in steps = 0.13E+47 mass=  -0.301E-27a.u.
   SCALEE = 1.0000    scale energy and forces
   NPACO  =    256;   APACO  = 10.0  distance and # of slots for P.C.
   PSTRESS=    0.0 pullay stress

  Mass of Ions in am
   POMASS =  63.55
  Ionic Valenz
   ZVAL   =  11.00
  Atomic Wigner-Seitz radii
  virtual crystal weights
   VCA    =   1.00
   NELECT =      77.0000    total number of electrons
   NUPDOWN=      -1.0000    fix difference up-down

 DOS related values:
   EMIN   =  10.00;   EMAX   =-10.00  energy-range for DOS
   EFERMI =   0.00
   ISMEAR =     1;   SIGMA  =   0.20  broadening in eV -4-tet -1-fermi 0-gaus

 Electronic relaxation 2 (details)
   IALGO  =     38    algorithm
   LDIAG  =      T    sub-space diagonalisation (order eigenvalues)
   LSUBROT=      F    optimize rotation matrix (better conditioning)
   TURBO    =      0    0=normal 1=particle mesh
   IRESTART =      0    0=no restart 2=restart with 2 vectors
   NREBOOT  =      0    no. of reboots
   NMIN     =      0    reboot dimension
   EREF     =   0.00    reference energy to select bands
   IMIX   =      4    mixing-type and parameters
     AMIX     =   0.40;   BMIX     =  1.00
     AMIX_MAG =   1.60;   BMIX_MAG =  1.00
     AMIN     =   0.10
     WC   =   100.;   INIMIX=   1;  MIXPRE=   1;  MAXMIX= -45

 Intra band minimization:
   WEIMIN = 0.0010     energy-eigenvalue tresh-hold
   EBREAK =  0.96E-06  absolut break condition
   DEPER  =   0.30     relativ break condition

   TIME   =   0.40     timestep for ELM

  volume/ion in A,a.u.               =      30.22       203.91
  Fermi-wavevector in a.u.,A,eV,Ry     =   1.168946  2.208988 18.591479  1.366435
  Thomas-Fermi vector in A             =   2.305426

 Write flags
[...]
      0.00000      0.00000      0.00000         0.000000      0.000000      0.782893
      1.81500      1.28340      1.28340         0.000000      0.000000     -0.327982
      0.00000      0.00000      2.56680         0.000000      0.000000     -0.203635
      1.81500      1.28340      3.85020         0.000000      0.000000      0.000519
      0.00000      0.00000      5.13360         0.000000      0.000000      0.203169
      1.81500      1.28340      6.41699         0.000000      0.000000      0.327186
      0.00000      0.00000      7.70039         0.000000      0.000000     -0.782150
    total drift:                                0.000002     -0.000004     -0.000594

  FREE ENERGIE OF THE ION-ELECTRON SYSTEM (eV)
  free  energy   TOTEN  =       -27.19533616 eV

  energy  without entropy=      -27.18235337  energy(sigma->0) =      -27.19100856

 stress matrix after NEB project (eV)
     -5.21763      0.00000      0.00000
      0.00000     -6.38158      0.00000
      0.00000      0.00000     -4.52492
  FORCES: max atom, RMS     0.782150    0.338390
  FORCE total and by dimension    0.895295    0.782150
  Stress total and by dimension    9.403355    6.381580

[...]

         DFTD3 V3.0 Rev 1
 Edisp (eV)   -2.47718

[...]

 d Force = 0.3269752E-01[ 0.267E-01, 0.387E-01]  d Energy = 0.3311505E-01-0.418E-03
 d Force =-0.7953075E+02[-0.797E+02,-0.794E+02]  d Ewald  =-0.7953601E+02 0.526E-02

 stress matrix after NEB project (eV)
     -3.75910      0.00000      0.00000
      0.00000     -5.08735      0.00000
      0.00000      0.00000     -3.08440
  FORCES: max atom, RMS     0.579411    0.236501
  FORCE total and by dimension    0.625723    0.579411
  Stress total and by dimension    7.037433    5.087353
 Steepest descent step on ions:
 trial-energy change:   -0.033115  1 .order   -0.032698   -0.038669   -0.026726
  (g-gl).g = 0.387E-01      g.g   = 0.387E-01  gl.gl    = 0.000E+00
 g(Force)  = 0.387E-01   g(Stress)= 0.000E+00 ortho     = 0.000E+00
 gamma     =   0.00000
 trial     =   1.00000
 opt step  =   3.23777  (harmonic =   3.23777) maximal distance =0.05110602
 next E    =   -27.257937   (d E  =  -0.06260)

[...]

 d Force = 0.2327795E-01[-0.133E-01, 0.598E-01]  d Energy = 0.2671651E-01-0.344E-02
 d Force =-0.1786203E+03[-0.179E+03,-0.178E+03]  d Ewald  =-0.1786813E+03 0.610E-01

[...]

 d Force = 0.5038085E-03[-0.140E-02, 0.240E-02]  d Energy = 0.8283638E-03-0.325E-03
 d Force = 0.3245676E+02[ 0.324E+02, 0.325E+02]  d Ewald  = 0.3245713E+02-0.369E-03

[...]

 d Force = 0.7958261E-04[-0.354E-03, 0.513E-03]  d Energy =-0.4863144E-04 0.128E-03
 d Force =-0.1192265E+02[-0.119E+02,-0.119E+02]  d Ewald  =-0.1192267E+02 0.183E-04

[...]

 d Force = 0.3610882E-04[-0.721E-04, 0.144E-03]  d Energy =-0.8327684E-05 0.444E-04
 d Force = 0.4866432E+01[ 0.487E+01, 0.487E+01]  d Ewald  = 0.4866433E+01-0.124E-05

[...]

 stress matrix after NEB project (eV)
     -3.14982      0.00000      0.00000
      0.00000     -4.83860      0.00000
      0.00000      0.00000     -2.26117
  FORCES: max atom, RMS     0.160050    0.075256
  FORCE total and by dimension    0.199110    0.160050
  Stress total and by dimension    6.200506    4.838595
 Conjugate gradient step on ions:
 trial-energy change:   -0.005413  1 .order   -0.004976   -0.006393   -0.003559
  (g-gl).g = 0.545E-02      g.g   = 0.471E-02  gl.gl    = 0.387E-01
 g(Force)  = 0.471E-02   g(Stress)= 0.000E+00 ortho     =-0.742E-03
 gamma     =   0.14099
 trial     =   1.38809
 opt step  =   3.13068  (harmonic =   3.13068) maximal distance =0.00613923
 next E    =   -27.263153   (d E  =  -0.00721)

[...]

 d Force =-0.1961623E-02[-0.808E-02, 0.416E-02]  d Energy =-0.1589610E-02-0.372E-03
 d Force =-0.2177526E+03[-0.218E+03,-0.218E+03]  d Ewald  =-0.2177548E+03 0.225E-02

[...]

 stress matrix after NEB project (eV)
     -3.30334      0.00000      0.00000
      0.00000     -5.12156      0.00000
      0.00000      0.00000     -2.17616
  FORCES: max atom, RMS     0.149707    0.072871
  FORCE total and by dimension    0.192799    0.149707
  Stress total and by dimension    6.471325    5.121556
 Conjugate gradient step on ions:
 trial-energy change:   -0.004107  1 .order   -0.004451   -0.004711   -0.004190
  (g-gl).g = 0.200E-02      g.g   = 0.229E-02  gl.gl    = 0.471E-02
 g(Force)  = 0.229E-02   g(Stress)= 0.000E+00 ortho     = 0.239E-03
 gamma     =   0.42528
 trial     =   1.97343
 opt step  =   7.89372  (harmonic =  17.84634) maximal distance =0.00000000
 next E    =   -27.287899   (d E  =  -0.02130)

[...]

 d Force = 0.9383731E-02[ 0.620E-02, 0.126E-01]  d Energy = 0.9979229E-02-0.595E-03
 d Force =-0.3235813E+03[-0.324E+03,-0.323E+03]  d Ewald  =-0.3235815E+03 0.142E-03

[...]

 d Force =-0.1592400E-02[-0.156E-01, 0.124E-01]  d Energy =-0.1749727E-02 0.157E-03
 d Force =-0.6509869E+03[-0.654E+03,-0.648E+03]  d Ewald  =-0.6509879E+03 0.994E-03

[...]

 d Force = 0.4082720E-02[-0.510E-03, 0.868E-02]  d Energy = 0.3839510E-02 0.243E-03
 d Force = 0.3631842E+03[ 0.362E+03, 0.364E+03]  d Ewald  = 0.3631844E+03-0.170E-03

[...]

 d Force = 0.1489469E-02[-0.175E-02, 0.473E-02]  d Energy = 0.1614549E-02-0.125E-03
 d Force =-0.1001558E+03[-0.100E+03,-0.100E+03]  d Ewald  =-0.1001561E+03 0.262E-03

 stress matrix after NEB project (eV)
     -1.93884      0.00000      0.00000
      0.00000     -3.99938      0.00000
      0.00000      0.00000      0.16943
  FORCES: max atom, RMS     0.064832    0.029243
  FORCE total and by dimension    0.077370    0.064832
  Stress total and by dimension    4.447791    3.999379
 Conjugate gradient step on ions:
 trial-energy change:   -0.001615  1 .order   -0.001489   -0.004733    0.001754
  (g-gl).g = 0.123E-02      g.g   = 0.108E-02  gl.gl    = 0.229E-02
 g(Force)  = 0.108E-02   g(Stress)= 0.000E+00 ortho     = 0.774E-04
 gamma     =   0.53808
 trial     =   4.20673
 opt step  =   3.06933  (harmonic =   3.06933) maximal distance =0.00000000
 next E    =   -27.284499   (d E  =  -0.00173)

[...]

 eigenvalue-minimisations  :  1312
 total energy-change (2. order) :-0.1529212E-02  (-0.1762356E-02)
 number of electron      77.0000468 magnetization      -0.0000038
 augmentation part       49.1568385 magnetization       0.0000096

[...]

 Broyden mixing:
  rms(total) = 0.50382E-02    rms(broyden)= 0.50330E-02
  rms(prec ) = 0.63947E-02
  weight for this iteration     100.00

 eigenvalues of (default mixing * dielectric matrix)
  average eigenvalue GAMMA=   0.5211
  0.7921  0.2501

[...]

--------------------------------------- Iteration     17(   4)  ---------------------------------------

 eigenvalue-minimisations  :   752
 total energy-change (2. order) : 0.2328219E-05  (-0.7740086E-04)
 number of electron      77.0000468 magnetization      -0.0000037
 augmentation part       49.1572078 magnetization       0.0000042

 Free energy of the ion-electron system (eV)
  alpha Z        PSCENC =       169.42466733
  Ewald energy   TEWEN  =     34009.44318700
  -Hartree energ DENC   =    -43309.00244585
  -exchange      EXHF   =         0.00000000
  -V(xc)+E(xc)   XCENC  =       311.87688810
  PAW double counting   =      9154.67510179    -9908.28425334
  entropy T*S    EENTRO =        -0.01283716
  eigenvalues    EBANDS =      -189.58341703
  atomic energy  EATOM  =      9736.70348140
  Solvation  Ediel_sol  =         0.00000000
  free energy    TOTEN  =       -24.75962776 eV

  energy without entropy =      -24.74679059  energy(sigma->0) =      -24.75534870

 average (electrostatic) potential at core
  the test charge radii are     0.9430
  (the norm of the test charge is              1.0000)
       1 -70.2505       2 -70.8512       3 -70.9804       4 -70.9972       5 -70.9588
       6 -70.8287       7 -70.3266

 E-fermi :   0.4600     XC(G=0):  -5.8123     alpha+bet : -5.2470

 Fermi energy:         0.4599704634

[...]

 k-point     4 :       0.3333    0.3333    0.0000
  band No.  band energies     occupation
      1      -5.3725      1.00000
      2      -4.4731      1.00000
      3      -4.1286      1.00000
      4      -3.8903      1.00000
      5      -3.7275      1.00000
      6      -3.6297      1.00000
      7      -3.5720      1.00000
      8      -3.4097      1.00000
      9      -3.3149      1.00000
     10      -3.1221      1.00000
     11      -2.9949      1.00000
     12      -2.9296      1.00000
     13      -2.8962      1.00000
     14      -2.8336      1.00000
     15      -2.6356      1.00000
     16      -2.5897      1.00000
     17      -2.5692      1.00000
     18      -2.5093      1.00000
     19      -2.4035      1.00000
     20      -2.3155      1.00000
     21      -2.2443      1.00000
     22      -2.0964      1.00000
     23      -2.0105      1.00000
     24      -1.8202      1.00000
     25      -1.7633      1.00000
     26      -1.7052      1.00000
     27      -1.6687      1.00000
     28      -1.5852      1.00000
     29      -1.4032      1.00000
     30      -1.3913      1.00000
     31      -1.3799      1.00000
     32      -1.3303      1.00000
     33      -1.2433      1.00000
     34      -1.1962      1.00000
     35      -1.1642      1.00000
     36      -1.1002      1.00000
     37      -0.6342      1.00000
     38       0.4885      0.38048
     39       1.2329     -0.00000
     40       2.0871     -0.00000
     41       2.6904     -0.00000
     42       3.9750     -0.00000
     43       4.4916     -0.00000
     44       5.5464     -0.00000
     45       5.5557     -0.00000
     46       6.6746      0.00000
     47       7.1210      0.00000
     48       7.6386      0.00000
     49       8.3103      0.00000
     50       8.7723      0.00000
     51       8.9381      0.00000
     52       9.1474      0.00000
 Fermi energy:         0.4599704634

 spin component 2

[...]

 k-point     4 :       0.3333    0.3333    0.0000
  band No.  band energies     occupation
      1      -5.3725      1.00000
      2      -4.4731      1.00000
      3      -4.1286      1.00000
      4      -3.8903      1.00000
      5      -3.7275      1.00000
      6      -3.6297      1.00000
      7      -3.5720      1.00000
      8      -3.4097      1.00000
      9      -3.3149      1.00000
     10      -3.1221      1.00000
     11      -2.9949      1.00000
     12      -2.9296      1.00000
     13      -2.8962      1.00000
     14      -2.8336      1.00000
     15      -2.6356      1.00000
     16      -2.5897      1.00000
     17      -2.5692      1.00000
     18      -2.5093      1.00000
     19      -2.4035      1.00000
     20      -2.3155      1.00000
     21      -2.2443      1.00000
     22      -2.0964      1.00000
     23      -2.0105      1.00000
     24      -1.8202      1.00000
     25      -1.7633      1.00000
     26      -1.7052      1.00000
     27      -1.6687      1.00000
     28      -1.5852      1.00000
     29      -1.4032      1.00000
     30      -1.3913      1.00000
     31      -1.3799      1.00000
     32      -1.3303      1.00000
     33      -1.2433      1.00000
     34      -1.1962      1.00000
     35      -1.1642      1.00000
     36      -1.1002      1.00000
     37      -0.6342      1.00000
     38       0.4885      0.38048
     39       1.2329     -0.00000
     40       2.0871     -0.00000
     41       2.6904     -0.00000
     42       3.9750     -0.00000
     43       4.4916     -0.00000
     44       5.5464     -0.00000
     45       5.5557     -0.00000
     46       6.6746      0.00000
     47       7.1210      0.00000
     48       7.6386      0.00000
     49       8.3106      0.00000
     50       8.7724      0.00000
     51       8.9382      0.00000
     52       9.1474      0.00000

[...]

 soft charge-density along one line, spin component           2
         0         1         2         3         4         5         6         7         8         9
 total charge-density along one line

------------------------ aborting loop because EDIFF is reached ----------------------------------------

 DIPCOR: dipole corrections for dipol
 direction  3 min pos   160,
 dipolmoment           0.000000      0.000000      0.009129 electrons x Angstroem
 Tr[quadrupol]      -162.480051

 energy correction for charged system         0.000000 eV
 dipol+quadrupol energy correction            0.000036 eV
 added-field ion interaction          0.000000 eV  (added to PSCEN)

  *************** adding dipol energy to TOTEN NOW ****************

         DFTD3 V3.0 Rev 1
 Edisp (eV)   -2.52450

 E6    (eV) :    -0.9987
 E8    (eV) :    -1.5258
 % E8        : 60.44

  FORCE on cell =-STRESS in cart. coord.  units (eV):
  Direction    XX          YY          ZZ          XY          YZ          ZX
  Alpha Z   169.42467   169.42467   169.42467
  Ewald   38954.96791 39115.40208-44060.93165    -0.00000     0.00000    -0.00000
  Hartree 41582.68839 41697.02238-39971.03875    -0.00000    -0.00000    -0.00000
  E(xc)    -449.85885  -449.70739  -450.38898     0.00000    -0.00000     0.00000
  Local  -81394.59055-81673.40661 83175.77802    -0.00000    -0.00000     0.00000
  n-local  -153.61982  -150.47253  -155.19800     5.40683     0.00000    -0.00000
  augment   661.41209   662.57159   662.48060    -0.00000    -0.00000     0.00000
  Kinetic   629.19291   626.77876   630.52313     5.39768     0.00000     0.00002
  Fock        0.00000     0.00000     0.00000     0.00000     0.00000     0.00000
  vdW        -3.08579    -3.12231    -1.99509    -0.00000     0.00000    -0.00000
  Total      -3.46905    -5.50936    -1.34605     0.00000     0.00000     0.00000
  in kB     -26.27781   -41.73305   -10.19621     0.00000     0.00000     0.00000

 VOLUME and BASIS-vectors are now :
  energy-cutoff  :      400.00
  volume of cell :      211.51
      direct lattice vectors                 reciprocal lattice vectors
     3.630000114  0.000000000  0.000000000     0.275482085  0.000000000  0.000000000
     0.000000000  2.566797733  0.000000000     0.000000000  0.389590495  0.000000000
     0.000000000  0.000000000 22.700393000     0.000000000  0.000000000  0.044052101

  length of vectors
     3.630000114  2.566797733 22.700393000     0.275482085  0.389590495  0.044052101

 FORCES acting on ions
    electron-ion (+dipol)            ewald-force                    non-local-force                 convergence-correction
   -.204E-13 -.166E-11 0.411E+04   -.622E-07 0.258E-07 -.411E+04   0.000E+00 0.000E+00 -.614E+01   0.651E-11 -.809E-12 -.179E-01
   0.742E-06 -.131E-05 0.291E+04   0.129E-06 -.541E-07 -.291E+04   0.000E+00 0.000E+00 0.714E+00   -.304E-10 0.766E-11 -.310E-01
   -.560E-13 0.189E-11 0.145E+04   -.128E-06 0.541E-07 -.145E+04   0.000E+00 0.000E+00 -.118E+00   0.700E-10 -.225E-10 0.525E-02
   0.754E-06 -.132E-05 -.862E+01   0.127E-06 -.531E-07 0.866E+01   0.000E+00 0.000E+00 -.122E+00   -.559E-10 0.110E-09 0.836E-01
   -.492E-13 -.395E-12 -.140E+04   -.124E-06 0.518E-07 0.140E+04   0.000E+00 0.000E+00 -.478E-02   -.105E-09 0.347E-10 0.972E-02
   0.734E-06 -.131E-05 -.295E+04   0.135E-06 -.579E-07 0.295E+04   0.000E+00 0.000E+00 -.177E+01   0.916E-10 -.109E-09 -.887E-01
   -.808E-14 -.139E-11 -.411E+04   -.768E-07 0.333E-07 0.410E+04   0.000E+00 0.000E+00 0.600E+01   0.201E-10 -.883E-11 0.122E-01
   0.223E-05 -.394E-05 0.142E+01   -.392E-13 0.780E-13 0.000E+00   0.000E+00 0.000E+00 -.143E+01   -.295E-11 0.105E-10 -.268E-01

 POSITION                                       TOTAL-FORCE (eV/Angst)
      0.00000      0.00000      0.00000         0.000000      0.000000      0.606420
      1.81500      1.28340      1.28340         0.000000      0.000000     -0.576182
      0.00000      0.00000      2.50071         0.000000      0.000000     -0.028515
      1.81500      1.28340      3.78317         0.000000      0.000000      0.015754
      0.00000      0.00000      5.03122         0.000000      0.000000     -0.017570
      1.81500      1.28340      6.34161         0.000000      0.000000      0.003736
      0.00000      0.00000      7.44832         0.000000      0.000000     -0.003643
    total drift:                                0.000002     -0.000004     -0.035210

  FREE ENERGIE OF THE ION-ELECTRON SYSTEM (eV)
  free  energy   TOTEN  =       -27.28409509 eV

  energy  without entropy=      -27.27125792  energy(sigma->0) =      -27.27981603

 d Force = 0.2092039E-03[-0.558E-04, 0.474E-03]  d Energy =-0.2916380E-03 0.501E-03
 d Force = 0.2710561E+02[ 0.271E+02, 0.271E+02]  d Ewald  = 0.2710562E+02-0.481E-05

 stress matrix after NEB project (eV)
     -3.46905      0.00000      0.00000
      0.00000     -5.50936      0.00000
      0.00000      0.00000     -1.34605
  FORCES: max atom, RMS     0.028515    0.014128
  FORCE total and by dimension    0.037380    0.028515
  Stress total and by dimension    6.648247    5.509361

 reached required accuracy - stopping structural energy minimisation