 vasp.6.3.2 27Jun22 (build Aug 17 2022 15:43:34) complex

 executed on           tv2STDVTST date 2025.01.17  13:53:47

 INCAR:
   ISTART = 0
   ICHARG = 2
   IPIPOL = 3
   IVDW = 11
   IDIPOL = 3
   IVDW = 11
   ISPIN = 2
   ENCUT = 400
   PREC = Normal
   EDIFF = 2E-04
   GGA = PE
   ISMEAR = 1
   SIGMA = 0.2
   LREAL = .FALSE.
   ISYM = 1
   NSW = 800
   IBRION = 2
   POTIM = 0.5
   ISIF = 2
   EDIFFG = -.03
   NPAR = 4
   LWAVE = .FALSE.
   LCHARG = .FALSE.

 POTCAR:    PAW_PBE Cu 22Jun2005
|           W    W    AA    RRRRR   N    N  II  N    N   GGGG   !!!           |
|           W    W   A  A   R    R  NN   N  II  NN   N  G    G  !!!           |
|           W    W  A    A  R    R  N N  N  II  N N  N  G       !!!           |
|           W WW W  AAAAAA  RRRRR   N  N N  II  N  N N  G  GGG   !            |
|           WW  WW  A    A  R   R   N   NN  II  N   NN  G    G                |
|           W    W  A    A  R    R  N    N  II  N    N   GGGG   !!!           |
|     You use a magnetic or noncollinear calculation, but did not specify     |
|     the initial magnetic moment with the MAGMOM tag. Note that a            |
|     default of 1 will be used for all atoms. This ferromagnetic setup       |
|     may break the symmetry of the crystal, in particular it may rule        |
|     out finding an antiferromagnetic solution. Thence, we recommend         |
|     setting the initial magnetic moment manually or verifying carefully     |
|     that this magnetic setup is desired.                                    |

   TITEL  = PAW_PBE Cu 22Jun2005
   POMASS =   63.546; ZVAL   =   11.000    mass and valenz
   ENMAX  =  295.446; ENMIN  =  221.585 eV

  PAW_PBE Cu 22Jun2005                  :

 POSCAR: FCC Cu
  positions in cartesian coordinates
  velocities in cartesian coordinates
 exchange correlation table for  LEXCH =        8
   RHO(1)=    0.500       N(1)  =     2000
   RHO(2)=  100.500       N(2)  =     4000

 VTST: version 4.2, (08/11/21)

 CHAIN: initializing optimizer

 OPT: Using VASP Conjugate-Gradient optimizer
 CHAIN: Read ICHAIN            0

 POSCAR: FCC Cu
  positions in cartesian coordinates
  velocities in cartesian coordinates

 ion  position               nearest neighbor table
   1  0.000  0.000  0.000-   2 2.57   2 2.57   2 2.57
   2  0.333  0.333  0.071-   3 2.57   1 2.57   1 2.57   3 2.57   1 2.57   3 2.57
   3  0.667  0.667  0.141-   2 2.57   2 2.57   2 2.57   4 2.57   4 2.57   4 2.57
   4  0.000  0.000  0.212-   5 2.57   5 2.57   5 2.57   3 2.57   3 2.57   3 2.57
   5  0.333  0.333  0.283-   6 2.57   6 2.57   6 2.57   4 2.57   4 2.57   4 2.57
   6  0.667  0.667  0.353-   5 2.57   5 2.57   5 2.57   7 2.57   7 2.57   7 2.57
   7  0.000  0.000  0.424-   8 2.57   6 2.57   6 2.57   8 2.57   8 2.57   6 2.57
   8  0.333  0.333  0.494-   7 2.57   7 2.57   7 2.57

  LATTYP: Found a hexagonal cell.
 ALAT       =     2.5667977333
 C/A-ratio  =    11.5593334001

  Lattice vectors:

 A1 = (  -1.2833988667,  -2.2229120434,   0.0000000000)
 A2 = (   2.5667977333,   0.0000000000,   0.0000000000)
 A3 = (   0.0000000000,   0.0000000000,  29.6704707700)

Analysis of symmetry for initial positions (statically):
 Subroutine PRICEL returns:
 Original cell was already a primitive cell.

 Routine SETGRP: Setting up the symmetry group for a
 hexagonal supercell.

 Subroutine GETGRP returns: Found 12 space group operations
 (whereof  6 operations were pure point group operations)
 out of a pool of 24 trial point group operations.

The static configuration has the point symmetry C_3v.
 The point group associated with its full space group is D_3d.

Analysis of symmetry for dynamics (positions and initial velocities):
 Subroutine PRICEL returns:
 Original cell was already a primitive cell.

[...]

The dynamic configuration has the point symmetry C_3v.
 The point group associated with its full space group is D_3d.

Analysis of constrained symmetry for selective dynamics:
 Subroutine PRICEL returns:
 Original cell was already a primitive cell.

[...]

The constrained configuration has the point symmetry C_3v.

Analysis of structural, dynamic, and magnetic symmetry:
 Subroutine PRICEL returns:
 Original cell was already a primitive cell.

 Routine SETGRP: Setting up the symmetry group for a
 hexagonal supercell.

 Subroutine GETGRP returns: Found  6 space group operations
 (whereof  6 operations were pure point group operations)
 out of a pool of 24 trial point group operations.

The overall configuration has the point symmetry C_3v.

 Subroutine INISYM returns: Found  6 space group operations
 (whereof  6 operations are pure point group operations),
 and found     1 'primitive' translations

                                     Primitive cell

  volume of cell :     169.2928

  direct lattice vectors                    reciprocal lattice vectors
     2.566797733  0.000000000  0.000000000     0.389590495 -0.224930177  0.000000000
     1.283398867  2.222912043  0.000000000     0.000000000  0.449860355  0.000000000
     0.000000000  0.000000000 29.670470770     0.000000000  0.000000000  0.033703543

  length of vectors
     2.566797733  2.566797733 29.670470770     0.449860355  0.449860355  0.033703543

  position of ions in fractional coordinates (direct lattice)
     0.000000000  0.000000000  0.000000000
     0.333333333  0.333333333  0.070635264
     0.666666667  0.666666667  0.141270528
     0.000000000  0.000000000  0.211905792
     0.333333333  0.333333333  0.282541056
     0.666666667  0.666666667  0.353176320
     0.000000000  0.000000000  0.423811585
     0.333333333  0.333333333  0.494446849

  ion indices of the primitive-cell ions
   primitive index   ion index
                 1           1
                 2           2
                 3           3
                 4           4
                 5           5
                 6           6
                 7           7
                 8           8

 KPOINTS: Auto-mesh

Automatic generation of k-mesh.
 Grid dimensions read from file:
 generate k-points for:    3    3    1

 Generating k-lattice:

  Cartesian coordinates                     Fractional coordinates (reciprocal lattice)
     0.129863498 -0.074976726  0.000000000     0.333333333  0.000000000  0.000000000
     0.000000000  0.149953452  0.000000000     0.000000000  0.333333333  0.000000000
     0.000000000  0.000000000  0.033703543     0.000000000  0.000000000  1.000000000

  Length of vectors
     0.149953452  0.149953452  0.033703543

  Shift w.r.t. Gamma in fractional coordinates (k-lattice)
     0.000000000  0.000000000  0.000000000

 Subroutine IBZKPT returns following result:

 Found      3 irreducible k-points:

 Following reciprocal coordinates:
            Coordinates               Weight
  0.000000  0.000000  0.000000      1.000000
  0.333333  0.000000  0.000000      6.000000
 -0.333333  0.333333  0.000000      2.000000

 Following cartesian coordinates:
            Coordinates               Weight
  0.000000  0.000000  0.000000      1.000000
  0.129863 -0.074977  0.000000      6.000000
 -0.129863  0.224930  0.000000      2.000000

 SYSTEM =  unknown system
 POSCAR =  FCC Cu

 Startparameter for this run:
   NWRITE =      2    write-flag & timer
   PREC   = normal    normal or accurate (medium, high low for compatibility)
   ISTART =      0    job   : 0-new  1-cont  2-samecut
   ICHARG =      2    charge: 1-file 2-atom 10-const
   ISPIN  =      2    spin polarized calculation?
   LNONCOLLINEAR =      F non collinear calculations
   LSORBIT =      F    spin-orbit coupling
   INIWAV =      1    electr: 0-lowe 1-rand  2-diag
   LASPH  =      F    aspherical Exc in radial PAW
 Electronic Relaxation 1
   ENCUT  =  400.0 eV  29.40 Ry    5.42 a.u.   4.19  4.19 48.39*2*pi/ulx,y,z
   ENINI  =  400.0     initial cutoff
   ENAUG  =  587.0 eV  augmentation charge cutoff
   NELM   =     60;   NELMIN=  2; NELMDL= -5     # of ELM steps
   EDIFF  = 0.2E-03   stopping-criterion for ELM
   LREAL  =      F    real-space projection
   NLSPLINE    = F    spline interpolate recip. space projectors
   LCOMPAT=      F    compatible to vasp.4.4
   GGA_COMPAT  = T    GGA compatible to vasp.4.4-vasp.4.6
   LMAXPAW     = -100 max onsite density
   LMAXMIX     =    2 max onsite mixed and CHGCAR
   VOSKOWN=      0    Vosko Wilk Nusair interpolation
   ROPT   =    0.00000
 Ionic relaxation
   EDIFFG = -.3E-01   stopping-criterion for IOM
   NSW    =    800    number of steps for IOM
   NBLOCK =      1;   KBLOCK =    800    inner block; outer block
   IBRION =      2    ionic relax: 0-MD 1-quasi-New 2-CG
   NFREE  =      1    steps in history (QN), initial steepest desc. (CG)
   ISIF   =      2    stress and relaxation
   IWAVPR =     11    prediction:  0-non 1-charg 2-wave 3-comb
   ISYM   =      1    0-nonsym 1-usesym 2-fastsym
   LCORR  =      T    Harris-Foulkes like correction to forces

   POTIM  = 0.5000    time-step for ionic-motion
   TEIN   =    0.0    initial temperature
   TEBEG  =    0.0;   TEEND  =   0.0 temperature during run
   SMASS  =  -3.00    Nose mass-parameter (am)
   estimated Nose-frequenzy (Omega)   =  0.10E-29 period in steps = 0.13E+47 mass=  -0.151E-27a.u.
   SCALEE = 1.0000    scale energy and forces
   NPACO  =    256;   APACO  = 10.0  distance and # of slots for P.C.
   PSTRESS=    0.0 pullay stress

  Mass of Ions in am
   POMASS =  63.55
  Ionic Valenz
   ZVAL   =  11.00
  Atomic Wigner-Seitz radii
  virtual crystal weights
   VCA    =   1.00
   NELECT =      88.0000    total number of electrons
   NUPDOWN=      -1.0000    fix difference up-down

 DOS related values:
   EMIN   =  10.00;   EMAX   =-10.00  energy-range for DOS
   EFERMI =   0.00
   ISMEAR =     1;   SIGMA  =   0.20  broadening in eV -4-tet -1-fermi 0-gaus

 Electronic relaxation 2 (details)
   IALGO  =     38    algorithm
   LDIAG  =      T    sub-space diagonalisation (order eigenvalues)
   LSUBROT=      F    optimize rotation matrix (better conditioning)
   TURBO    =      0    0=normal 1=particle mesh
   IRESTART =      0    0=no restart 2=restart with 2 vectors
   NREBOOT  =      0    no. of reboots
   NMIN     =      0    reboot dimension
   EREF     =   0.00    reference energy to select bands
   IMIX   =      4    mixing-type and parameters
     AMIX     =   0.40;   BMIX     =  1.00
     AMIX_MAG =   1.60;   BMIX_MAG =  1.00
     AMIN     =   0.10
     WC   =   100.;   INIMIX=   1;  MIXPRE=   1;  MAXMIX= -45

 Intra band minimization:
   WEIMIN = 0.0010     energy-eigenvalue tresh-hold
   EBREAK =  0.89E-06  absolut break condition
   DEPER  =   0.30     relativ break condition

   TIME   =   0.40     timestep for ELM

  volume/ion in A,a.u.               =      21.16       142.81
  Fermi-wavevector in a.u.,A,eV,Ry     =   1.316304  2.487454 23.574226  1.732657
  Thomas-Fermi vector in A             =   2.446426

 Write flags
   LWAVE        =      F    write WAVECAR
   LDOWNSAMPLE  =      F    k-point downsampling of WAVECAR
   LCHARG       =      F    write CHGCAR
   LVTOT        =      F    write LOCPOT, total local potential
   LVHAR        =      F    write LOCPOT, Hartree potential only
   LELF         =      F    write electronic localiz. function (ELF)
[...]
  FORCES: max atom, RMS     0.379552    0.136379
  FORCE total and by dimension    0.385737    0.379552
  Stress total and by dimension    9.574157    5.562563
 Steepest descent step on ions:
 trial-energy change:   -0.011078  1 .order   -0.011154   -0.013013   -0.009294
  (g-gl).g = 0.130E-01      g.g   = 0.130E-01  gl.gl    = 0.000E+00
 g(Force)  = 0.130E-01   g(Stress)= 0.000E+00 ortho     = 0.000E+00
 gamma     =   0.00000
 trial     =   1.00000
 opt step  =   3.49899  (harmonic =   3.49899) maximal distance =0.02103184
 next E    =   -33.904541   (d E  =  -0.02277)

[...]

 d Force = 0.7981618E-02[-0.726E-02, 0.232E-01]  d Energy = 0.7734977E-02 0.247E-03
 d Force =-0.2709114E+03[-0.273E+03,-0.269E+03]  d Ewald  =-0.2709160E+03 0.453E-02

[...]

 d Force = 0.1026631E-02[ 0.323E-03, 0.173E-02]  d Energy = 0.9543061E-03 0.723E-04
 d Force = 0.6485200E+02[ 0.648E+02, 0.650E+02]  d Ewald  = 0.6485206E+02-0.659E-04

[...]

 stress matrix after NEB project (eV)
     -5.78396     -0.00000     -0.00000
     -0.00000     -5.78396      0.00000
     -0.00000      0.00000     -5.22943
  FORCES: max atom, RMS     0.241137    0.092771
  FORCE total and by dimension    0.262396    0.241137
  Stress total and by dimension    9.708522    5.783962
 Conjugate gradient step on ions:
 trial-energy change:   -0.006354  1 .order   -0.005982   -0.006742   -0.005222
  (g-gl).g = 0.566E-02      g.g   = 0.512E-02  gl.gl    = 0.130E-01
 g(Force)  = 0.512E-02   g(Stress)= 0.000E+00 ortho     =-0.543E-03
 gamma     =   0.43509
 trial     =   1.38074
 opt step  =   5.52296  (harmonic =   6.12544) maximal distance =0.00881131
 next E    =   -33.916497   (d E  =  -0.01495)

[...]

 stress matrix after NEB project (eV)
     -5.57361     -0.00000     -0.00000
     -0.00000     -5.57361      0.00000
     -0.00000      0.00000     -3.69192
  FORCES: max atom, RMS     0.146036    0.075277
  FORCE total and by dimension    0.212916    0.146036
  Stress total and by dimension    8.704047    5.573605
 Conjugate gradient step on ions:
 trial-energy change:   -0.007175  1 .order   -0.007434   -0.008967   -0.005900
  (g-gl).g = 0.337E-02      g.g   = 0.462E-02  gl.gl    = 0.613E-02
 g(Force)  = 0.462E-02   g(Stress)= 0.000E+00 ortho     = 0.246E-03
 gamma     =   0.54922
 trial     =   1.88572
 opt step  =   5.51206  (harmonic =   5.51206) maximal distance =0.00503946
 next E    =   -33.946613   (d E  =  -0.01311)

[...]

 d Force = 0.4122384E-04[-0.179E-03, 0.262E-03]  d Energy =-0.6945659E-04 0.111E-03
 d Force = 0.2245394E+02[ 0.224E+02, 0.225E+02]  d Ewald  = 0.2245394E+02-0.933E-06

[...]

 d Force = 0.2995003E-04[-0.130E-04, 0.729E-04]  d Energy =-0.2194514E-04 0.519E-04
 d Force =-0.9124912E+01[-0.913E+01,-0.912E+01]  d Ewald  =-0.9124912E+01 0.621E-07

[...]

 d Force = 0.1150253E-02[-0.659E-03, 0.296E-02]  d Energy = 0.1731994E-02-0.582E-03
 d Force =-0.6700007E+02[-0.671E+02,-0.669E+02]  d Ewald  =-0.6700005E+02-0.147E-04

 stress matrix after NEB project (eV)
     -4.49134     -0.00000      0.00000
     -0.00000     -4.49134      0.00000
     -0.00000      0.00000     -1.62774
  FORCES: max atom, RMS     0.062712    0.033590
  FORCE total and by dimension    0.095007    0.062712
  Stress total and by dimension    6.556966    4.491340
 Conjugate gradient step on ions:
 trial-energy change:   -0.001732  1 .order   -0.001150   -0.002960    0.000659
  (g-gl).g = 0.221E-02      g.g   = 0.181E-02  gl.gl    = 0.658E-02
 g(Force)  = 0.181E-02   g(Stress)= 0.000E+00 ortho     =-0.971E-04
 gamma     =   0.33658
 trial     =   1.66266
 opt step  =   1.35977  (harmonic =   1.35977) maximal distance =0.00254772
 next E    =   -33.969473   (d E  =  -0.00121)

[...]

 d Force =-0.5938311E-05[-0.132E-03, 0.120E-03]  d Energy =-0.1783468E-03 0.172E-03
 d Force = 0.1222205E+02[ 0.122E+02, 0.122E+02]  d Ewald  = 0.1222205E+02 0.817E-07

[...]

 d Force =-0.2506975E-04[-0.528E-04, 0.263E-05]  d Energy =-0.1468646E-04-0.104E-04
 d Force =-0.1121059E+01[-0.112E+01,-0.112E+01]  d Ewald  =-0.1121059E+01-0.509E-10

[...]

 d Force = 0.1638770E-04[-0.175E-04, 0.503E-04]  d Energy = 0.3557527E-04-0.192E-04
 d Force = 0.1067910E+01[ 0.107E+01, 0.107E+01]  d Ewald  = 0.1067910E+01 0.146E-10

[...]

 d Force = 0.1330201E-05[-0.608E-05, 0.874E-05]  d Energy =-0.4413106E-04 0.455E-04
 d Force =-0.5339478E+00[-0.534E+00,-0.534E+00]  d Ewald  =-0.5339478E+00-0.364E-10

[...]

 d Force = 0.9574952E-06[-0.581E-06, 0.250E-05]  d Energy = 0.2130142E-04-0.203E-04
 d Force = 0.2190765E+00[ 0.219E+00, 0.219E+00]  d Ewald  = 0.2190765E+00-0.873E-10

[...]

 d Force = 0.5517390E-07[ 0.585E-09, 0.110E-06]  d Energy =-0.1166984E-04 0.117E-04
 d Force =-0.4137441E-01[-0.414E-01,-0.414E-01]  d Ewald  =-0.4137441E-01-0.218E-10

 stress matrix after NEB project (eV)
     -5.15577     -0.00000     -0.00000
     -0.00000     -5.15577      0.00000
      0.00000     -0.00000     -2.30605
  FORCES: max atom, RMS     0.059568    0.029398
  FORCE total and by dimension    0.083150    0.059568
  Stress total and by dimension    7.647345    5.155774

[...]

 eigenvalue-minimisations  :  1008
 total energy-change (2. order) :-0.5333317E-03  (-0.5459847E-03)
 number of electron      87.9999974 magnetization      -0.0000746
 augmentation part       56.1249396 magnetization      -0.0000352

 Broyden mixing:
  rms(total) = 0.40382E-02    rms(broyden)= 0.40348E-02
  rms(prec ) = 0.62541E-02
  weight for this iteration     100.00

 eigenvalues of (default mixing * dielectric matrix)
  average eigenvalue GAMMA=   0.4181
  0.4181

[...]

--------------------------------------- Iteration     29(   3)  ---------------------------------------

 eigenvalue-minimisations  :   448
 total energy-change (2. order) : 0.1318177E-04  (-0.8432177E-04)
 number of electron      87.9999974 magnetization      -0.0000746
 augmentation part       56.1249396 magnetization      -0.0000352

 Free energy of the ion-electron system (eV)
  alpha Z        PSCENC =       276.47370612
  Ewald energy   TEWEN  =     53798.52768753
  -Hartree energ DENC   =    -64674.92779859
  -exchange      EXHF   =         0.00000000
  -V(xc)+E(xc)   XCENC  =       357.22299488
  PAW double counting   =     10533.44481527   -11395.27188347
  entropy T*S    EENTRO =        -0.02960410
  eigenvalues    EBANDS =       -53.63373075
  atomic energy  EATOM  =     11127.66112160
  Solvation  Ediel_sol  =         0.00000000
  free energy    TOTEN  =       -30.53269152 eV

  energy without entropy =      -30.50308742  energy(sigma->0) =      -30.52282349

 average (electrostatic) potential at core
  the test charge radii are     0.9430
  (the norm of the test charge is              1.0000)
       1 -68.2793       2 -68.8995       3 -69.0582       4 -69.0275       5 -69.0277
       6 -69.0703       7 -68.9822       8 -68.4066

 E-fermi :   1.7059     XC(G=0):  -7.6547     alpha+bet : -7.4920

 Fermi energy:         1.7058704815

[...]

 k-point     3 :      -0.3333    0.3333    0.0000
  band No.  band energies     occupation
      1      -1.8618      1.00000
      2      -1.8552      1.00000
      3      -1.8518      1.00000
      4      -1.7794      1.00000
      5      -1.7392      1.00000
      6      -1.7260      1.00000
      7      -1.6993      1.00000
      8      -1.6982      1.00000
      9      -1.6730      1.00000
     10      -1.6642      1.00000
     11      -1.5941      1.00000
     12      -1.4905      1.00000
     13      -1.3715      1.00000
     14      -1.2465      1.00000
     15      -1.1790      1.00000
     16      -1.0298      1.00000
     17      -1.0022      1.00000
     18      -0.9861      1.00000
     19      -0.9139      1.00000
     20      -0.7060      1.00000
     21      -0.5558      1.00000
     22      -0.1289      1.00000
     23      -0.1133      1.00000
     24      -0.0292      1.00000
     25      -0.0290      1.00000
     26      -0.0081      1.00000
     27       0.0092      1.00000
     28       0.0100      1.00000
     29       0.0192      1.00000
     30       0.0559      1.00000
     31       0.3491      1.00000
     32       0.4022      1.00000
     33       0.4986      1.00000
     34       0.5019      1.00000
     35       0.5533      1.00000
     36       0.6041      1.00000
     37       0.7007      1.00000
     38       0.7387      1.00000
     39       0.7776      1.00000
     40       0.8451      1.00000
     41       5.4518     -0.00000
     42       5.4572     -0.00000
     43       5.4732     -0.00000
     44       5.6308     -0.00000
     45       5.6748     -0.00000
     46       5.9534     -0.00000
     47       6.1062     -0.00000
     48       6.7448     -0.00000
     49       6.8604     -0.00000
     50       7.3791      0.00000
     51       7.3978      0.00000
     52       7.4793      0.00000
     53       7.9132      0.00000
     54       7.9275      0.00000
     55       8.6886      0.00000
     56       8.9145      0.00000
 Fermi energy:         1.7058704815

 spin component 2

[...]

 k-point     3 :      -0.3333    0.3333    0.0000
  band No.  band energies     occupation
      1      -1.8618      1.00000
      2      -1.8552      1.00000
      3      -1.8518      1.00000
      4      -1.7794      1.00000
      5      -1.7392      1.00000
      6      -1.7260      1.00000
      7      -1.6993      1.00000
      8      -1.6982      1.00000
      9      -1.6730      1.00000
     10      -1.6642      1.00000
     11      -1.5941      1.00000
     12      -1.4905      1.00000
     13      -1.3715      1.00000
     14      -1.2466      1.00000
     15      -1.1790      1.00000
     16      -1.0298      1.00000
     17      -1.0022      1.00000
     18      -0.9862      1.00000
     19      -0.9139      1.00000
     20      -0.7060      1.00000
     21      -0.5558      1.00000
     22      -0.1289      1.00000
     23      -0.1133      1.00000
     24      -0.0292      1.00000
     25      -0.0290      1.00000
     26      -0.0081      1.00000
     27       0.0092      1.00000
     28       0.0100      1.00000
     29       0.0192      1.00000
     30       0.0559      1.00000
     31       0.3491      1.00000
     32       0.4022      1.00000
     33       0.4986      1.00000
     34       0.5019      1.00000
     35       0.5533      1.00000
     36       0.6041      1.00000
     37       0.7007      1.00000
     38       0.7387      1.00000
     39       0.7776      1.00000
     40       0.8451      1.00000
     41       5.4518     -0.00000
     42       5.4572     -0.00000
     43       5.4732     -0.00000
     44       5.6308     -0.00000
     45       5.6748     -0.00000
     46       5.9534     -0.00000
     47       6.1062     -0.00000
     48       6.7448     -0.00000
     49       6.8604     -0.00000
     50       7.3791      0.00000
     51       7.3978      0.00000
     52       7.4793      0.00000
     53       7.9132      0.00000
     54       7.9275      0.00000
     55       8.6886      0.00000
     56       8.9145      0.00000

[...]

 soft charge-density along one line, spin component           2
         0         1         2         3         4         5         6         7         8         9
 total charge-density along one line

------------------------ aborting loop because EDIFF is reached ----------------------------------------

 DIPCOR: dipole corrections for dipol
 direction  3 min pos   229,
 dipolmoment           0.000000      0.000000     -0.006261 electrons x Angstroem
 Tr[quadrupol]       -79.807414

 energy correction for charged system         0.000000 eV
 dipol+quadrupol energy correction            0.000021 eV
 added-field ion interaction          0.000000 eV  (added to PSCEN)

  *************** adding dipol energy to TOTEN NOW ****************

         DFTD3 V3.0 Rev 1
 Edisp (eV)   -3.43762

 E6    (eV) :    -1.4230
 E8    (eV) :    -2.0147
 % E8        : 58.61

  FORCE on cell =-STRESS in cart. coord.  units (eV):
  Direction    XX          YY          ZZ          XY          YZ          ZX
  Alpha Z   276.47371   276.47371   276.47371
  Ewald   59666.97813 59666.97813-65535.44104    -0.00000     0.00000    -0.00000
  Hartree 62854.85794 62854.85794-61035.49219     0.00000    -0.00000    -0.00000
  E(xc)    -514.67806  -514.67792  -515.11241    -0.00012     0.00000     0.00000
  Local  ************************125514.40763     0.00402    -0.00000    -0.00000
  n-local  -174.08538  -166.82253  -176.02648     6.29040    -1.11912     1.94471
  augment   759.54389   759.54836   753.43952    -0.00387     0.00001     0.00002
  Kinetic   732.01115   708.69778   719.06406   -20.18957    -2.19964     3.80976
  Fock        0.00000     0.00000     0.00000     0.00000     0.00000     0.00000
  vdW        -4.15529    -4.15529    -3.51360     0.00000     0.00000     0.00000
  Total      -5.07995    -5.07995    -2.20079    -0.00000     0.00000    -0.00000
  in kB     -48.07638   -48.07638   -20.82813    -0.00000     0.00000    -0.00000

 VOLUME and BASIS-vectors are now :
  energy-cutoff  :      400.00
  volume of cell :      169.29
      direct lattice vectors                 reciprocal lattice vectors
     2.566797733  0.000000000  0.000000000     0.389590495 -0.224930177  0.000000000
     1.283398867  2.222912043  0.000000000     0.000000000  0.449860355  0.000000000
     0.000000000  0.000000000 29.670470770     0.000000000  0.000000000  0.033703543

  length of vectors
     2.566797733  2.566797733 29.670470770     0.449860355  0.449860355  0.033703543

 FORCES acting on ions
    electron-ion (+dipol)            ewald-force                    non-local-force                 convergence-correction
   -.423E-05 -.244E-05 0.599E+04   0.797E-08 -.252E-08 -.599E+04   -.694E-17 0.000E+00 -.343E+01   -.122E-07 -.706E-08 -.547E-01
   0.790E-05 0.579E-05 0.433E+04   -.235E-07 -.483E-09 -.433E+04   0.000E+00 -.139E-16 -.250E-01   0.568E-07 0.327E-07 0.409E+00
   -.976E-05 -.536E-05 0.260E+04   0.246E-07 0.967E-08 -.260E+04   0.000E+00 -.867E-18 0.735E-01   0.187E-05 0.108E-05 0.969E+00
   0.171E-06 0.988E-07 0.881E+03   0.506E-09 -.968E-08 -.881E+03   0.173E-17 -.173E-17 -.646E+00   -.787E-06 -.455E-06 0.842E+00
   0.791E-05 0.580E-05 -.856E+03   -.244E-07 0.146E-09 0.855E+03   -.260E-17 -.173E-17 0.912E+00   -.242E-05 -.140E-05 0.649E+00
   -.484E-05 -.252E-05 -.258E+04   0.244E-07 0.989E-08 0.258E+04   -.173E-17 0.173E-17 0.220E-01   -.154E-05 -.888E-06 0.614E+00
   0.493E-05 0.285E-05 -.431E+04   0.873E-09 -.103E-07 0.431E+04   0.694E-17 -.139E-16 -.252E+00   -.617E-06 -.356E-06 0.265E+00
   0.686E-05 0.520E-05 -.606E+04   -.104E-07 0.325E-08 0.606E+04   0.000E+00 0.000E+00 0.380E+01   -.118E-05 -.679E-06 -.385E+00
   0.894E-05 0.941E-05 -.370E+01   -.168E-12 0.585E-13 0.546E-11   -.260E-17 -.304E-16 0.458E+00   -.462E-05 -.267E-05 0.331E+01

 POSITION                                       TOTAL-FORCE (eV/Angst)
      0.00000      0.00000      0.00000        -0.000000     -0.000000      0.456737
      1.28340      0.74097      2.09578        -0.000000      0.000000     -0.407381
      2.56680      1.48194      4.12675         0.000000      0.000000     -0.004016
     -0.00000     -0.00000      6.17636         0.000000      0.000000     -0.003223
      1.28340      0.74097      8.20574         0.000000      0.000000      0.007494
      2.56680      1.48194     10.25294         0.000000      0.000000     -0.020175
      0.00000      0.00000     12.28375        -0.000000      0.000000     -0.021378
      1.28340      0.74097     14.28315        -0.000000     -0.000000     -0.008058
    total drift:                                0.000004      0.000007      0.066026

  FREE ENERGIE OF THE ION-ELECTRON SYSTEM (eV)
  free  energy   TOTEN  =       -33.97029385 eV

  energy  without entropy=      -33.94068975  energy(sigma->0) =      -33.96042582

 d Force = 0.3065494E-03[ 0.673E-04, 0.546E-03]  d Energy = 0.4354272E-03-0.129E-03
 d Force =-0.4908522E+02[-0.491E+02,-0.491E+02]  d Ewald  =-0.4908522E+02 0.133E-05

 stress matrix after NEB project (eV)
     -5.07995     -0.00000     -0.00000
     -0.00000     -5.07995      0.00000
      0.00000      0.00000     -2.20079
  FORCES: max atom, RMS     0.021378    0.011245
  FORCE total and by dimension    0.031806    0.021378
  Stress total and by dimension    7.513673    5.079951
 Conjugate gradient step on ions:
 trial-energy change:   -0.000435  1 .order   -0.000307   -0.000546   -0.000067
  (g-gl).g = 0.304E-03      g.g   = 0.334E-03  gl.gl    = 0.181E-02
 g(Force)  = 0.334E-03   g(Stress)= 0.000E+00 ortho     = 0.570E-06
 gamma     =   0.16773
 trial     =   1.63582
 opt step  =   1.86599  (harmonic =   1.86599) maximal distance =0.00347469
 next E    =   -33.970170   (d E  =  -0.00031)

 reached required accuracy - stopping structural energy minimisation