 vasp.6.3.2 27Jun22 (build Aug 17 2022 15:43:34) complex

 executed on           tv2STDVTST date 2025.01.21  18:24:36

 INCAR:
   ISTART = 0
   ICHARG = 2
   IPIPOL = 3
   IVDW = 11
   IDIPOL = 3
   IVDW = 11
   ISPIN = 2
   ENCUT = 400
   PREC = Normal
   EDIFF = 2E-04
   GGA = PE
   ISMEAR = 1
   SIGMA = 0.2
   LREAL = .FALSE.
   ISYM = 1
   NSW = 800
   IBRION = 2
   POTIM = 0.5
   ISIF = 2
   EDIFFG = -.03
   NPAR = 4
   LWAVE = .FALSE.
   LCHARG = .FALSE.

 POTCAR:    PAW_PBE Cu 22Jun2005
|           W    W    AA    RRRRR   N    N  II  N    N   GGGG   !!!           |
|           W    W   A  A   R    R  NN   N  II  NN   N  G    G  !!!           |
|           W    W  A    A  R    R  N N  N  II  N N  N  G       !!!           |
|           W WW W  AAAAAA  RRRRR   N  N N  II  N  N N  G  GGG   !            |
|           WW  WW  A    A  R   R   N   NN  II  N   NN  G    G                |
|           W    W  A    A  R    R  N    N  II  N    N   GGGG   !!!           |
|     You use a magnetic or noncollinear calculation, but did not specify     |
|     the initial magnetic moment with the MAGMOM tag. Note that a            |
|     default of 1 will be used for all atoms. This ferromagnetic setup       |
|     may break the symmetry of the crystal, in particular it may rule        |
|     out finding an antiferromagnetic solution. Thence, we recommend         |
|     setting the initial magnetic moment manually or verifying carefully     |
|     that this magnetic setup is desired.                                    |

   TITEL  = PAW_PBE Cu 22Jun2005
   POMASS =   63.546; ZVAL   =   11.000    mass and valenz
   ENMAX  =  295.446; ENMIN  =  221.585 eV

  PAW_PBE Cu 22Jun2005                  :

 POSCAR: FCC Cu
  positions in cartesian coordinates
  velocities in cartesian coordinates
 exchange correlation table for  LEXCH =        8
   RHO(1)=    0.500       N(1)  =     2000
   RHO(2)=  100.500       N(2)  =     4000

 VTST: version 4.2, (08/11/21)

 CHAIN: initializing optimizer

 OPT: Using VASP Conjugate-Gradient optimizer
 CHAIN: Read ICHAIN            0

 POSCAR: FCC Cu
  positions in cartesian coordinates
  velocities in cartesian coordinates

 ion  position               nearest neighbor table
   1  0.000  0.000  0.000-  16 2.57  12 2.57  10 2.57   7 2.57   4 2.57   8 2.57   2 2.57   6 2.57
                             3 2.57
   2  0.000  0.333  0.000-  10 2.57  17 2.57  11 2.57   4 2.57   5 2.57   1 2.57   3 2.57   8 2.57
                             9 2.57
   3  1.000  0.667  0.000-  18 2.57  12 2.57  11 2.57   7 2.57   9 2.57   1 2.57   2 2.57   5 2.57
                             6 2.57
   4  0.333  0.000  0.000-  10 2.57  15 2.57  13 2.57   2 2.57   6 2.57   1 2.57   5 2.57   9 2.57
                             7 2.57
   5  0.333  0.333  0.000-  11 2.57  13 2.57  14 2.57   2 2.57   8 2.57   4 2.57   7 2.57   3 2.57
                             6 2.57
   6  0.333  0.667  0.000-  12 2.57  15 2.57  14 2.57   4 2.57   9 2.57   1 2.57   8 2.57   5 2.57
                             3 2.57
   7  0.667  0.000  0.000-  18 2.57  13 2.57  16 2.57   8 2.57   3 2.57   1 2.57   5 2.57   9 2.57
                             4 2.57
   8  0.667  0.333  0.000-  14 2.57  16 2.57  17 2.57   7 2.57   5 2.57   1 2.57   6 2.57   2 2.57
                             9 2.57
   9  0.667  0.667  0.000-  15 2.57  18 2.57  17 2.57   3 2.57   6 2.57   4 2.57   7 2.57   2 2.57
                             8 2.57
  10  0.111  0.111  0.090-   4 2.57   2 2.57   1 2.57  19 2.57  21 2.57  25 2.57  16 2.57  13 2.57
                            17 2.57  11 2.57  15 2.57  12 2.57
  11  0.111  0.444  0.090-   5 2.57   2 2.57   3 2.57  20 2.57  19 2.57  26 2.57  13 2.57  14 2.57
                            10 2.57  12 2.57  17 2.57  18 2.57
  12  0.111  0.778  0.090-   1 2.57   6 2.57   3 2.57  21 2.57  20 2.57  27 2.57  16 2.57  18 2.57
                            10 2.57  11 2.57  14 2.57  15 2.57
  13  0.444  0.111  0.090-   5 2.57   7 2.57   4 2.57  22 2.57  24 2.57  19 2.57  11 2.57  15 2.57
                            10 2.57  14 2.57  18 2.57  16 2.57
  14  0.444  0.444  0.090-   8 2.57   5 2.57   6 2.57  23 2.57  22 2.57  20 2.57  11 2.57  17 2.57
                            13 2.57  16 2.57  12 2.57  15 2.57
  15  0.444  0.778  0.090-   9 2.57   4 2.57   6 2.57  24 2.57  23 2.57  21 2.57  13 2.57  18 2.57
                            10 2.57  17 2.57  14 2.57  12 2.57
  16  0.778  0.111  0.090-   1 2.57   8 2.57   7 2.57  25 2.57  27 2.57  22 2.57  17 2.57  12 2.57
                            10 2.57  14 2.57  18 2.57  13 2.57
  17  0.778  0.444  0.090-   2 2.57   8 2.57   9 2.57  26 2.57  25 2.57  23 2.57  16 2.57  14 2.57
                            10 2.57  15 2.57  11 2.57  18 2.57
  18  0.778  0.778  0.090-  27 2.57   3 2.57   7 2.57   9 2.57  24 2.57  26 2.57  12 2.57  15 2.57
                            13 2.57  16 2.57  11 2.57  17 2.57
  19  0.222  0.222  0.179-  29 2.57  10 2.57  31 2.57  11 2.57  13 2.57  32 2.57  25 2.57  22 2.57
                            26 2.57  20 2.57  21 2.57  24 2.57
  20  0.222  0.556  0.179-  11 2.57  32 2.57  14 2.57  12 2.57  30 2.57  33 2.57  22 2.57  23 2.57
                            19 2.57  21 2.57  26 2.57  27 2.57
  21  0.222  0.889  0.179-  12 2.57  28 2.57  33 2.57  10 2.57  31 2.57  15 2.57  25 2.57  19 2.57
                            20 2.57  23 2.57  24 2.57  27 2.57
  22  0.556  0.222  0.179-  13 2.57  32 2.57  34 2.57  14 2.57  35 2.57  16 2.57  27 2.57  20 2.57
                            24 2.57  19 2.57  23 2.57  25 2.57
  23  0.556  0.556  0.179-  14 2.57  35 2.57  33 2.57  17 2.57  15 2.57  36 2.57  26 2.57  20 2.57
                            25 2.57  22 2.57  21 2.57  24 2.57
  24  0.556  0.889  0.179-  15 2.57  36 2.57  13 2.57  18 2.57  34 2.57  31 2.57  27 2.57  22 2.57
                            19 2.57  26 2.57  23 2.57  21 2.57
  25  0.889  0.222  0.179-  16 2.57  28 2.57  17 2.57  10 2.57  29 2.57  35 2.57  26 2.57  21 2.57
                            19 2.57  23 2.57  22 2.57  27 2.57
  26  0.889  0.556  0.179-  17 2.57  29 2.57  36 2.57  30 2.57  18 2.57  11 2.57  27 2.57  25 2.57
                            23 2.57  19 2.57  24 2.57  20 2.57
  27  0.889  0.889  0.179-  18 2.57  34 2.57  30 2.57  16 2.57  12 2.57  28 2.57  24 2.57  22 2.57
                            26 2.57  25 2.57  20 2.57  21 2.57
  28  0.000  0.000  0.269-  43 2.57  21 2.57  25 2.57  39 2.57  37 2.57  27 2.57  34 2.57  31 2.57
                            35 2.57  29 2.57  33 2.57  30 2.57
  29  0.000  0.333  0.269-  19 2.57  37 2.57  26 2.57  44 2.57  25 2.57  38 2.57  31 2.57  32 2.57
                            28 2.57  30 2.57  35 2.57  36 2.57
  30  1.000  0.667  0.269-  45 2.57  27 2.57  39 2.57  26 2.57  38 2.57  20 2.57  34 2.57  36 2.57
                            28 2.57  29 2.57  32 2.57  33 2.57
  31  0.333  0.000  0.269-  37 2.57  19 2.57  42 2.57  40 2.57  24 2.57  21 2.57  29 2.57  33 2.57
                            28 2.57  32 2.57  36 2.57  34 2.57
  32  0.333  0.333  0.269-  38 2.57  22 2.57  40 2.57  20 2.57  41 2.57  19 2.57  29 2.57  35 2.57
                            31 2.57  34 2.57  30 2.57  33 2.57
  33  0.333  0.667  0.269-  21 2.57  23 2.57  39 2.57  42 2.57  41 2.57  20 2.57  31 2.57  36 2.57
                            28 2.57  35 2.57  32 2.57  30 2.57
  34  0.667  0.000  0.269-  27 2.57  22 2.57  45 2.57  40 2.57  43 2.57  24 2.57  35 2.57  30 2.57
                            28 2.57  32 2.57  36 2.57  31 2.57
  35  0.667  0.333  0.269-  41 2.57  43 2.57  23 2.57  44 2.57  25 2.57  22 2.57  34 2.57  32 2.57
                            28 2.57  33 2.57  29 2.57  36 2.57
  36  0.667  0.667  0.269-  42 2.57  24 2.57  26 2.57  45 2.57  44 2.57  23 2.57  30 2.57  33 2.57
                            31 2.57  34 2.57  29 2.57  35 2.57
  37  0.111  0.111  0.359-  31 2.57  29 2.57  28 2.57  43 2.57  40 2.57  44 2.57  38 2.57  42 2.57
                            39 2.57
  38  0.111  0.444  0.359-  32 2.57  29 2.57  30 2.57  40 2.57  41 2.57  37 2.57  39 2.57  44 2.57
                            45 2.57
  39  0.111  0.778  0.359-  28 2.57  33 2.57  30 2.57  43 2.57  45 2.57  37 2.57  38 2.57  41 2.57
                            42 2.57
  40  0.444  0.111  0.359-  32 2.57  34 2.57  31 2.57  38 2.57  42 2.57  37 2.57  41 2.57  45 2.57
                            43 2.57
  41  0.444  0.444  0.359-  35 2.57  32 2.57  33 2.57  38 2.57  44 2.57  40 2.57  43 2.57  39 2.57
                            42 2.57
  42  0.444  0.778  0.359-  36 2.57  31 2.57  33 2.57  40 2.57  45 2.57  37 2.57  44 2.57  41 2.57
                            39 2.57
  43  0.778  0.111  0.359-  28 2.57  35 2.57  34 2.57  44 2.57  39 2.57  37 2.57  41 2.57  45 2.57
                            40 2.57
  44  0.778  0.444  0.359-  29 2.57  35 2.57  36 2.57  43 2.57  41 2.57  37 2.57  42 2.57  38 2.57
                            45 2.57
  45  0.778  0.778  0.359-  30 2.57  34 2.57  36 2.57  39 2.57  42 2.57  40 2.57  43 2.57  38 2.57
                            44 2.57

  LATTYP: Found a hexagonal cell.
 ALAT       =     7.7003932000
 C/A-ratio  =     3.0366144556

  Lattice vectors:

 A1 = (  -3.8501966000,  -6.6687361303,   0.0000000000)
 A2 = (   7.7003931999,   0.0000000000,   0.0000000000)
 A3 = (   0.0000000000,   0.0000000000,  23.3831253052)

Analysis of symmetry for initial positions (statically):
 Subroutine PRICEL returns following result:

[...]

   9 primitive cells build up your supercell.

 Routine SETGRP: Setting up the symmetry group for a
 hexagonal supercell.

 Subroutine GETGRP returns: Found 12 space group operations
 (whereof  6 operations were pure point group operations)
 out of a pool of 24 trial point group operations.

The static configuration has the point symmetry C_3v.
 The point group associated with its full space group is D_3d.

Analysis of symmetry for dynamics (positions and initial velocities):
 Subroutine PRICEL returns following result:

[...]

The dynamic configuration has the point symmetry C_3v.
 The point group associated with its full space group is D_3d.

Analysis of constrained symmetry for selective dynamics:
 Subroutine PRICEL returns following result:

[...]

The constrained configuration has the point symmetry C_3v.

Analysis of structural, dynamic, and magnetic symmetry:
 Subroutine PRICEL returns following result:

  LATTYP: Found a hexagonal cell.
 ALAT       =     2.5667977331
 C/A-ratio  =     9.1098433677

  Lattice vectors:

 A1 = (  -1.2833988670,  -2.2229120430,   0.0000000000)
 A2 = (   2.5667977330,   0.0000000000,   0.0000000000)
 A3 = (   0.0000000000,   0.0000000000,  23.3831253052)

   9 primitive cells build up your supercell.

 Routine SETGRP: Setting up the symmetry group for a
 hexagonal supercell.

 Subroutine GETGRP returns: Found  6 space group operations
 (whereof  6 operations were pure point group operations)
 out of a pool of 24 trial point group operations.

The overall configuration has the point symmetry C_3v.

 Subroutine INISYM returns: Found  6 space group operations
 (whereof  6 operations are pure point group operations),
 and found     9 'primitive' translations

[...]
    310       8.7747      0.00000
    311       8.7747      0.00000
    312       8.7747      0.00000
    313       8.8102      0.00000
    314       8.8102      0.00000
    315       8.8102      0.00000
    316       9.4358      0.00000
    317       9.4358      0.00000
    318       9.4358      0.00000
    319       9.7172      0.00000
    320       9.7191      0.00000
 Fermi energy:         0.7065710249

 spin component 2

[...]

 k-point     3 :      -0.3333    0.3333    0.0000
  band No.  band energies     occupation
      1      -7.2991      1.00000
      2      -7.2991      1.00000
      3      -7.2991      1.00000
      4      -6.3589      1.00000
      5      -6.3589      1.00000
      6      -6.3589      1.00000
      7      -5.1349      1.00000
      8      -5.1349      1.00000
      9      -5.1349      1.00000
     10      -4.5946      1.00000
     11      -4.5946      1.00000
     12      -4.5946      1.00000
     13      -4.1456      1.00000
     14      -4.1456      1.00000
     15      -4.1456      1.00000
     16      -4.1249      1.00000
     17      -4.1249      1.00000
     18      -4.1249      1.00000
     19      -4.0271      1.00000
     20      -4.0271      1.00000
     21      -4.0271      1.00000
     22      -4.0126      1.00000
     23      -4.0126      1.00000
     24      -4.0126      1.00000
     25      -3.7544      1.00000
     26      -3.7544      1.00000
     27      -3.7544      1.00000
     28      -3.7503      1.00000
     29      -3.7503      1.00000
     30      -3.7503      1.00000
     31      -3.6942      1.00000
     32      -3.6942      1.00000
     33      -3.6942      1.00000
     34      -3.6341      1.00000
     35      -3.6341      1.00000
     36      -3.6341      1.00000
     37      -3.5163      1.00000
     38      -3.5163      1.00000
     39      -3.5163      1.00000
     40      -3.5091      1.00000
     41      -3.5091      1.00000
     42      -3.5091      1.00000
     43      -3.2783      1.00000
     44      -3.2783      1.00000
     45      -3.2783      1.00000
     46      -3.2164      1.00000
     47      -3.2164      1.00000
     48      -3.2164      1.00000
     49      -3.2117      1.00000
     50      -3.2117      1.00000
     51      -3.2117      1.00000
     52      -3.1897      1.00000
     53      -3.1897      1.00000
     54      -3.1897      1.00000
     55      -2.9738      1.00000
     56      -2.9738      1.00000
     57      -2.9738      1.00000
     58      -2.8743      1.00000
     59      -2.8743      1.00000
     60      -2.8743      1.00000
[...]
    306       8.4645      0.00000
    307       8.7071      0.00000
    308       8.7071      0.00000
    309       8.7071      0.00000
    310       8.7747      0.00000
    311       8.7747      0.00000
    312       8.7747      0.00000
    313       8.8102      0.00000
    314       8.8102      0.00000
    315       8.8102      0.00000
    316       9.4358      0.00000
    317       9.4358      0.00000
    318       9.4358      0.00000
    319       9.7644      0.00000
    320       9.7644      0.00000

[...]

 soft charge-density along one line, spin component           2
         0         1         2         3         4         5         6         7         8         9
 total charge-density along one line

------------------------ aborting loop because EDIFF is reached ----------------------------------------

 DIPCOR: dipole corrections for dipol
 direction  3 min pos   170,
 dipolmoment           0.000000      0.000000     -0.021685 electrons x Angstroem
 Tr[quadrupol]     -4775.301389

 energy correction for charged system         0.000000 eV
 dipol+quadrupol energy correction            0.000035 eV
 added-field ion interaction          0.000000 eV  (added to PSCEN)

  *************** adding dipol energy to TOTEN NOW ****************

         DFTD3 V3.0 Rev 1
 Edisp (eV)  -17.05417

 E6    (eV) :    -6.9098
 E8    (eV) :   -10.1444
 % E8        : 59.48

  FORCE on cell =-STRESS in cart. coord.  units (eV):
  Direction    XX          YY          ZZ          XY          YZ          ZX
  Alpha Z  1233.32706  1233.32706  1233.32706
  Ewald  254852.65306254852.65306************    -0.00000     0.00000    -0.00000
  Hartree271680.31093271680.31093************     0.00000     0.00000    -0.00000
  E(xc)   -2890.77794 -2890.77737 -2895.42403    -0.00049     0.00001     0.00002
  Local  ************************543425.30719     0.02250    -0.00001    -0.00001
  n-local  -974.83915  -965.28838  -976.73063     8.27231     0.10992    -0.19572
  augment  4254.65588  4254.67370  4273.05935    -0.01543     0.00020     0.00034
  Kinetic  4026.78995  4028.19067  4061.07597     1.21442     1.60713    -2.78366
  Fock        0.00000     0.00000     0.00000     0.00000     0.00000     0.00000
  vdW       -21.11962   -21.11962   -14.74470     0.00000    -0.00000    -0.00000
  Total     -28.16420   -28.16420    -3.48257    -0.00000     0.00000    -0.00000
  in kB     -37.57933   -37.57933    -4.64677    -0.00000     0.00000    -0.00000

 VOLUME and BASIS-vectors are now :
  energy-cutoff  :      400.00
  volume of cell :     1200.77
      direct lattice vectors                 reciprocal lattice vectors
     7.700393200  0.000000000  0.000000000     0.129863498 -0.074976726  0.000000000
     3.850196600  6.668736130  0.000000000     0.000000000  0.149953452  0.000000000
     0.000000000  0.000000000 23.383125305     0.000000000  0.000000000  0.042765883

  length of vectors
     7.700393200  7.700393200 23.383125305     0.149953452  0.149953452  0.042765883

 FORCES acting on ions
    electron-ion (+dipol)            ewald-force                    non-local-force                 convergence-correction
   0.162E-07 0.982E-08 0.427E+04   0.804E-07 -.216E-06 -.427E+04   0.147E-16 -.867E-18 -.183E+01   0.607E-08 0.372E-08 -.217E+00
   0.146E-04 0.323E-04 0.427E+04   -.200E-06 0.441E-06 -.427E+04   0.273E-16 -.260E-17 -.183E+01   0.480E-09 -.655E-08 -.217E+00
   -.162E-04 -.302E-04 0.427E+04   0.279E-06 -.310E-06 -.427E+04   0.226E-16 -.347E-17 -.183E+01   0.120E-07 0.139E-07 -.217E+00
   0.357E-04 -.156E-05 0.427E+04   0.190E-06 -.194E-06 -.427E+04   0.152E-16 0.173E-17 -.183E+01   -.523E-08 0.414E-08 -.217E+00
   0.126E-05 0.245E-05 0.427E+04   0.338E-07 0.441E-06 -.427E+04   0.295E-16 -.434E-17 -.183E+01   0.655E-08 0.391E-08 -.217E+00
   0.173E-04 -.308E-04 0.427E+04   -.239E-06 -.235E-06 -.427E+04   0.230E-16 0.867E-18 -.183E+01   0.494E-09 0.134E-07 -.217E+00
   -.360E-04 -.293E-06 0.427E+04   -.248E-06 -.117E-06 -.427E+04   0.221E-16 0.104E-16 -.183E+01   0.179E-07 0.340E-08 -.217E+00
   -.159E-04 0.330E-04 0.427E+04   0.189E-06 0.444E-06 -.427E+04   0.221E-16 -.867E-17 -.183E+01   0.123E-07 -.604E-08 -.217E+00
   -.146E-05 -.120E-05 0.427E+04   -.167E-07 -.286E-06 -.427E+04   0.954E-17 0.347E-17 -.183E+01   0.654E-08 0.367E-08 -.217E+00
   0.326E-04 0.201E-04 0.216E+04   -.916E-07 -.262E-06 -.216E+04   0.127E-17 -.651E-18 -.640E+00   -.561E-07 -.315E-07 -.105E+01
   0.505E-05 -.100E-05 0.216E+04   -.155E-06 0.548E-06 -.216E+04   0.813E-18 -.163E-18 -.640E+00   -.591E-07 -.425E-07 -.105E+01
   0.173E-05 -.399E-04 0.216E+04   0.252E-06 -.298E-06 -.216E+04   0.127E-17 -.271E-18 -.640E+00   -.657E-07 -.498E-07 -.105E+01
   0.884E-06 0.873E-05 0.216E+04   0.818E-07 -.109E-06 -.216E+04   0.114E-17 -.596E-18 -.640E+00   -.651E-07 -.295E-07 -.105E+01
   -.598E-05 -.449E-06 0.216E+04   -.432E-07 0.602E-06 -.216E+04   0.122E-17 -.542E-18 -.640E+00   -.737E-07 -.427E-07 -.105E+01
   0.245E-04 -.182E-04 0.216E+04   -.404E-06 -.322E-06 -.216E+04   0.103E-17 0.298E-18 -.640E+00   -.563E-07 -.431E-07 -.105E+01
   -.365E-04 0.220E-04 0.216E+04   -.885E-08 -.787E-07 -.216E+04   0.136E-17 0.000E+00 -.640E+00   -.776E-07 -.325E-07 -.105E+01
   -.251E-05 0.348E-04 0.216E+04   0.132E-06 0.411E-06 -.216E+04   -.298E-18 -.488E-18 -.640E+00   -.654E-07 -.271E-07 -.105E+01
   -.300E-04 -.164E-04 0.216E+04   -.410E-07 -.495E-06 -.216E+04   0.190E-18 -.867E-18 -.640E+00   -.752E-07 -.419E-07 -.105E+01
   0.298E-04 0.176E-04 0.682E+01   -.697E-07 -.207E-07 -.543E+01   0.244E-18 0.325E-18 0.219E+00   -.328E-05 -.189E-05 -.160E+01
   0.235E-05 -.298E-04 0.682E+01   -.141E-06 0.877E-06 -.543E+01   -.117E-17 0.271E-18 0.219E+00   -.326E-05 -.187E-05 -.160E+01
   0.367E-04 -.208E-04 0.682E+01   -.433E-06 -.470E-06 -.543E+01   -.130E-17 0.271E-18 0.219E+00   -.326E-05 -.189E-05 -.160E+01
   -.246E-04 0.195E-04 0.682E+01   0.239E-06 0.372E-06 -.543E+01   -.705E-18 0.163E-18 0.219E+00   -.325E-05 -.189E-05 -.160E+01
   0.615E-05 0.567E-05 0.682E+01   -.120E-06 0.435E-06 -.543E+01   -.434E-18 0.407E-18 0.219E+00   -.327E-05 -.189E-05 -.160E+01
   -.103E-05 -.790E-05 0.682E+01   -.914E-06 -.339E-06 -.543E+01   -.922E-18 0.596E-18 0.219E+00   -.326E-05 -.188E-05 -.160E+01
   -.175E-05 0.414E-04 0.682E+01   -.210E-06 -.352E-06 -.543E+01   -.379E-18 -.217E-18 0.219E+00   -.326E-05 -.188E-05 -.160E+01
   -.559E-05 0.626E-05 0.682E+01   0.221E-06 -.273E-07 -.543E+01   -.125E-17 -.271E-18 0.219E+00   -.326E-05 -.189E-05 -.160E+01
   -.214E-04 -.188E-04 0.682E+01   0.178E-05 -.383E-06 -.543E+01   -.179E-17 -.325E-18 0.219E+00   -.327E-05 -.189E-05 -.160E+01
   -.197E-06 -.114E-06 -.215E+04   0.520E-07 -.414E-06 0.215E+04   0.179E-17 0.130E-17 0.511E+00   -.233E-06 -.136E-06 -.995E+00
   0.152E-04 0.333E-04 -.215E+04   -.207E-06 0.417E-06 0.215E+04   0.423E-17 0.119E-17 0.511E+00   -.230E-06 -.131E-06 -.995E+00
   -.161E-04 -.319E-04 -.215E+04   0.515E-06 -.302E-06 0.215E+04   0.173E-17 0.119E-17 0.511E+00   -.233E-06 -.138E-06 -.995E+00
   0.368E-04 -.157E-05 -.215E+04   0.628E-07 -.313E-06 0.215E+04   0.445E-17 0.152E-17 0.511E+00   -.229E-06 -.135E-06 -.995E+00
   0.197E-05 0.285E-05 -.215E+04   -.953E-08 0.538E-06 0.215E+04   0.228E-17 0.195E-17 0.511E+00   -.233E-06 -.134E-06 -.995E+00
   0.177E-04 -.332E-04 -.215E+04   -.315E-06 -.103E-06 0.215E+04   0.228E-17 0.195E-17 0.511E+00   -.231E-06 -.138E-06 -.995E+00
   -.374E-04 0.641E-06 -.215E+04   -.235E-06 -.415E-07 0.215E+04   0.173E-17 0.206E-17 0.511E+00   -.237E-06 -.133E-06 -.995E+00
   -.178E-04 0.345E-04 -.215E+04   0.221E-06 0.432E-06 0.215E+04   0.173E-17 0.163E-17 0.511E+00   -.235E-06 -.131E-06 -.995E+00
   -.258E-05 -.185E-05 -.215E+04   -.147E-06 -.306E-06 0.215E+04   0.542E-18 0.217E-17 0.511E+00   -.234E-06 -.134E-06 -.995E+00
   0.324E-04 0.200E-04 -.429E+04   -.164E-07 -.123E-06 0.428E+04   0.000E+00 -.347E-17 0.203E+01   -.772E-06 -.446E-06 -.433E+00
   0.567E-05 -.183E-05 -.429E+04   -.175E-06 0.445E-06 0.428E+04   -.108E-16 -.260E-17 0.203E+01   -.762E-06 -.451E-06 -.433E+00
   0.116E-05 -.404E-04 -.429E+04   0.279E-06 -.370E-06 0.428E+04   0.143E-16 0.867E-18 0.203E+01   -.771E-06 -.443E-06 -.433E+00
   0.468E-06 0.971E-05 -.429E+04   0.210E-06 -.128E-06 0.428E+04   -.781E-17 -.954E-17 0.203E+01   -.771E-06 -.435E-06 -.433E+00
   -.761E-05 -.136E-05 -.429E+04   -.420E-07 0.480E-06 0.428E+04   -.173E-16 -.173E-17 0.203E+01   -.779E-06 -.450E-06 -.433E+00
   0.234E-04 -.175E-04 -.429E+04   -.252E-06 -.308E-06 0.428E+04   -.156E-16 -.954E-17 0.203E+01   -.766E-06 -.448E-06 -.433E+00
   -.373E-04 0.218E-04 -.429E+04   -.219E-06 -.725E-07 0.428E+04   -.781E-17 -.113E-16 0.203E+01   -.769E-06 -.447E-06 -.433E+00
   -.247E-05 0.336E-04 -.429E+04   0.191E-06 0.413E-06 0.428E+04   0.000E+00 -.121E-16 0.203E+01   -.771E-06 -.441E-06 -.433E+00
   -.294E-04 -.160E-04 -.429E+04   -.537E-07 -.302E-06 0.428E+04   -.520E-17 -.434E-17 0.203E+01   -.775E-06 -.448E-06 -.433E+00
   -.650E-05 0.372E-04 0.359E+02   -.516E-12 0.790E-13 -.164E-10   0.157E-15 -.443E-16 0.256E+01   -.389E-04 -.225E-04 -.387E+02

 POSITION                                       TOTAL-FORCE (eV/Angst)
      0.00000      0.00000      0.00000        -0.000000     -0.000000      0.155172
      1.28340      2.22291      0.00000         0.000000     -0.000000      0.155172
     10.26719      4.44582      0.00000        -0.000000     -0.000000      0.155172
      2.56680      0.00000      0.00000         0.000000     -0.000000      0.155172
      3.85020      2.22291      0.00000         0.000000     -0.000000      0.155172
      5.13360      4.44582      0.00000         0.000000     -0.000000      0.155172
      5.13360      0.00000      0.00000         0.000000     -0.000000      0.155172
      6.41699      2.22291      0.00000         0.000000     -0.000000      0.155172
      7.70039      4.44582      0.00000        -0.000000     -0.000000      0.155172
      1.28340      0.74097      2.09578        -0.000000      0.000000     -0.166212
      2.56680      2.96388      2.09578        -0.000000      0.000000     -0.166212
      3.85020      5.18679      2.09578        -0.000000      0.000000     -0.166212
      3.85020      0.74097      2.09578        -0.000000      0.000000     -0.166212
      5.13360      2.96388      2.09578         0.000000      0.000000     -0.166212
      6.41699      5.18679      2.09578         0.000000     -0.000000     -0.166212
      6.41699      0.74097      2.09578        -0.000000      0.000000     -0.166212
      7.70039      2.96388      2.09578        -0.000000      0.000000     -0.166212
      8.98379      5.18679      2.09578        -0.000000      0.000000     -0.166212
      2.56680      1.48194      4.14288        -0.000000     -0.000000      0.022662
      3.85020      3.70485      4.14288        -0.000000     -0.000000      0.022662
      5.13360      5.92777      4.14288        -0.000000     -0.000000      0.022662
      5.13360      1.48194      4.14288        -0.000000     -0.000000      0.022662
      6.41699      3.70485      4.14288        -0.000000     -0.000000      0.022662
      7.70039      5.92777      4.14288        -0.000000     -0.000000      0.022662
      7.70039      1.48194      4.14288        -0.000000     -0.000000      0.022662
      8.98379      3.70485      4.14288        -0.000000     -0.000000      0.022662
     10.26719      5.92777      4.14288         0.000000     -0.000000      0.022662
     -0.00000     -0.00000      6.19552         0.000000      0.000000     -0.028927
      1.28340      2.22291      6.19552        -0.000000      0.000000     -0.028927
     10.26719      4.44582      6.19552         0.000000      0.000000     -0.028927
      2.56680     -0.00000      6.19552        -0.000000      0.000000     -0.028927
      3.85020      2.22291      6.19552        -0.000000      0.000000     -0.028927
      5.13360      4.44582      6.19552        -0.000000      0.000000     -0.028927
      5.13360     -0.00000      6.19552         0.000000      0.000000     -0.028927
      6.41699      2.22291      6.19552        -0.000000      0.000000     -0.028927
      7.70039      4.44582      6.19552         0.000000      0.000000     -0.028927
      1.28340      0.74097      8.24872         0.000000      0.000000      0.017306
      2.56680      2.96388      8.24872         0.000000     -0.000000      0.017306
      3.85020      5.18679      8.24872         0.000000      0.000000      0.017306
      3.85020      0.74097      8.24872         0.000000      0.000000      0.017306
      5.13360      2.96388      8.24872         0.000000      0.000000      0.017306
      6.41699      5.18679      8.24872         0.000000      0.000000      0.017306
      6.41699      0.74097      8.24872         0.000000      0.000000      0.017306
      7.70039      2.96388      8.24872         0.000000      0.000000      0.017306
      8.98379      5.18679      8.24872         0.000000      0.000000      0.017306
    total drift:                               -0.000045      0.000015     -0.201679

  FREE ENERGIE OF THE ION-ELECTRON SYSTEM (eV)
  free  energy   TOTEN  =      -176.39079761 eV

  energy  without entropy=     -176.27782891  energy(sigma->0) =     -176.35314138

 d Force = 0.4962047E-02[-0.359E-02, 0.135E-01]  d Energy = 0.6587923E-02-0.163E-02
 d Force =-0.2639367E+03[-0.264E+03,-0.263E+03]  d Ewald  =-0.2639368E+03 0.657E-04

 stress matrix after NEB project (eV)
    -28.16420     -0.00000     -0.00000
     -0.00000    -28.16420     -0.00000
     -0.00000      0.00000     -3.48257
  FORCES: max atom, RMS     0.028927    0.018165
  FORCE total and by dimension    0.121855    0.028927
  Stress total and by dimension   39.982152   28.164199
 Conjugate gradient step on ions:
 trial-energy change:   -0.006588  1 .order   -0.004962   -0.013512    0.003588
  (g-gl).g = 0.487E-02      g.g   = 0.619E-02  gl.gl    = 0.155E-01
 g(Force)  = 0.619E-02   g(Stress)= 0.000E+00 ortho     = 0.854E-03
 gamma     =   0.31343
 trial     =   2.09303
 opt step  =   1.79835  (harmonic =   1.65390) maximal distance =0.00000000
 next E    =  -176.391046   (d E  =  -0.00684)

 reached required accuracy - stopping structural energy minimisation