 vasp.6.3.2 27Jun22 (build Aug 17 2022 15:43:34) complex

 executed on           tv2STDVTST date 2025.01.21  20:05:43

 INCAR:
   ISTART = 0
   ICHARG = 2
   IPIPOL = 3
   IVDW = 11
   IDIPOL = 3
   IVDW = 11
   ISPIN = 2
   ENCUT = 400
   PREC = Normal
   EDIFF = 2E-04
   GGA = PE
   ISMEAR = 1
   SIGMA = 0.2
   LREAL = .FALSE.
   ISYM = 1
   NSW = 800
   IBRION = 2
   POTIM = 0.5
   ISIF = 2
   EDIFFG = -.03
   NPAR = 4
   LWAVE = .FALSE.
   LCHARG = .FALSE.

 POTCAR:    PAW_PBE Cu 22Jun2005
|           W    W    AA    RRRRR   N    N  II  N    N   GGGG   !!!           |
|           W    W   A  A   R    R  NN   N  II  NN   N  G    G  !!!           |
|           W    W  A    A  R    R  N N  N  II  N N  N  G       !!!           |
|           W WW W  AAAAAA  RRRRR   N  N N  II  N  N N  G  GGG   !            |
|           WW  WW  A    A  R   R   N   NN  II  N   NN  G    G                |
|           W    W  A    A  R    R  N    N  II  N    N   GGGG   !!!           |
|     You use a magnetic or noncollinear calculation, but did not specify     |
|     the initial magnetic moment with the MAGMOM tag. Note that a            |
|     default of 1 will be used for all atoms. This ferromagnetic setup       |
|     may break the symmetry of the crystal, in particular it may rule        |
|     out finding an antiferromagnetic solution. Thence, we recommend         |
|     setting the initial magnetic moment manually or verifying carefully     |
|     that this magnetic setup is desired.                                    |

   TITEL  = PAW_PBE Cu 22Jun2005
   POMASS =   63.546; ZVAL   =   11.000    mass and valenz
   ENMAX  =  295.446; ENMIN  =  221.585 eV

  PAW_PBE Cu 22Jun2005                  :

 POSCAR: FCC Cu
  positions in cartesian coordinates
  velocities in cartesian coordinates
 exchange correlation table for  LEXCH =        8
   RHO(1)=    0.500       N(1)  =     2000
   RHO(2)=  100.500       N(2)  =     4000

 VTST: version 4.2, (08/11/21)

 CHAIN: initializing optimizer

 OPT: Using VASP Conjugate-Gradient optimizer
 CHAIN: Read ICHAIN            0

 POSCAR: FCC Cu
  positions in cartesian coordinates
  velocities in cartesian coordinates

 ion  position               nearest neighbor table
   1  0.000  0.000  0.000-  19 2.57  28 2.57  21 2.57  34 2.57  10 2.57  12 2.57  16 2.57  18 2.57

   2  0.000  0.333  0.000-  19 2.57  29 2.57  20 2.57  35 2.57  10 2.57  11 2.57  16 2.57  17 2.57

[...]

  19  0.000  0.167  0.082-  37 2.57  38 2.57  46 2.57  52 2.57   2 2.57  10 2.57   1 2.57  16 2.57
                            28 2.57  29 2.57  34 2.57  35 2.57
  20  0.000  0.500  0.082-  47 2.57  38 2.57  53 2.57  39 2.57  11 2.57   2 2.57  17 2.57   3 2.57
                            29 2.57  35 2.57  30 2.57  36 2.57
  21  0.000  0.833  0.082-  48 2.57  39 2.57  37 2.57  54 2.57  12 2.57   3 2.57   1 2.57  18 2.57
                            30 2.57  28 2.57  36 2.57  34 2.57
  22  0.333  0.167  0.082-  40 2.57  41 2.57  46 2.57  49 2.57   5 2.57  10 2.57   4 2.57  13 2.57
                            28 2.57  29 2.57  31 2.57  32 2.57
  23  0.333  0.500  0.082-  47 2.57  41 2.57  50 2.57  42 2.57  11 2.57   5 2.57  14 2.57   6 2.57
                            29 2.57  32 2.57  30 2.57  33 2.57
  24  0.333  0.833  0.082-  48 2.57  42 2.57  51 2.57  40 2.57  12 2.57   6 2.57  15 2.57   4 2.57
                            30 2.57  33 2.57  28 2.57  31 2.57
  25  0.667  0.167  0.082-  43 2.57  44 2.57  52 2.57  49 2.57   7 2.57   8 2.57  16 2.57  13 2.57
                            34 2.57  35 2.57  31 2.57  32 2.57
  26  0.667  0.500  0.082-  44 2.57  53 2.57  50 2.57  45 2.57   8 2.57  17 2.57  14 2.57   9 2.57
                            35 2.57  32 2.57  36 2.57  33 2.57
  27  0.667  0.833  0.082-  45 2.57  54 2.57  43 2.57  51 2.57   9 2.57  18 2.57   7 2.57  15 2.57
                            36 2.57  34 2.57  33 2.57  31 2.57
  28  0.167  0.000  0.082-  37 2.57  40 2.57  46 2.57  48 2.57   4 2.57  10 2.57   1 2.57  12 2.57
                            19 2.57  22 2.57  21 2.57  24 2.57
  29  0.167  0.333  0.082-  38 2.57  41 2.57  46 2.57  47 2.57   5 2.57  10 2.57   2 2.57  11 2.57
                            19 2.57  22 2.57  20 2.57  23 2.57
  30  0.167  0.667  0.082-  39 2.57  42 2.57  48 2.57  47 2.57   3 2.57   6 2.57  12 2.57  11 2.57
                            21 2.57  24 2.57  23 2.57  20 2.57
  31  0.500  0.000  0.082-  49 2.57  40 2.57  51 2.57  43 2.57  13 2.57   4 2.57  15 2.57   7 2.57
                            22 2.57  24 2.57  25 2.57  27 2.57
  32  0.500  0.333  0.082-  49 2.57  41 2.57  50 2.57  44 2.57  13 2.57   5 2.57  14 2.57   8 2.57
                            22 2.57  23 2.57  25 2.57  26 2.57
  33  0.500  0.667  0.082-  42 2.57  51 2.57  50 2.57  45 2.57   6 2.57  15 2.57  14 2.57   9 2.57
                            24 2.57  23 2.57  27 2.57  26 2.57
  34  0.833  0.000  0.082-  52 2.57  43 2.57  37 2.57  54 2.57  16 2.57   7 2.57   1 2.57  18 2.57
                            25 2.57  19 2.57  27 2.57  21 2.57
  35  0.833  0.333  0.082-  52 2.57  44 2.57  53 2.57  38 2.57  16 2.57   8 2.57  17 2.57   2 2.57
                            25 2.57  26 2.57  19 2.57  20 2.57
  36  0.833  0.667  0.082-  45 2.57  54 2.57  39 2.57  53 2.57   9 2.57  18 2.57   3 2.57  17 2.57
                            27 2.57  21 2.57  26 2.57  20 2.57
  37  0.000  0.000  0.163-  19 2.57  28 2.57  21 2.57  34 2.57  55 2.57  64 2.57  57 2.57  70 2.57
                            46 2.57  48 2.57  52 2.57  54 2.57
  38  0.000  0.333  0.163-  19 2.57  29 2.57  20 2.57  35 2.57  55 2.57  65 2.57  56 2.57  71 2.57
                            46 2.57  47 2.57  52 2.57  53 2.57
  39  0.000  0.667  0.163-  30 2.57  21 2.57  36 2.57  20 2.57  66 2.57  57 2.57  72 2.57  56 2.57
                            48 2.57  54 2.57  47 2.57  53 2.57
  40  0.333  0.000  0.163-  22 2.57  28 2.57  31 2.57  24 2.57  58 2.57  64 2.57  67 2.57  60 2.57
                            46 2.57  49 2.57  48 2.57  51 2.57
  41  0.333  0.333  0.163-  22 2.57  29 2.57  23 2.57  32 2.57  58 2.57  65 2.57  59 2.57  68 2.57
                            46 2.57  47 2.57  49 2.57  50 2.57
  42  0.333  0.667  0.163-  30 2.57  24 2.57  33 2.57  23 2.57  66 2.57  60 2.57  69 2.57  59 2.57
                            48 2.57  51 2.57  47 2.57  50 2.57
  43  0.667  0.000  0.163-  25 2.57  34 2.57  27 2.57  31 2.57  61 2.57  70 2.57  63 2.57  67 2.57
                            52 2.57  54 2.57  49 2.57  51 2.57
  44  0.667  0.333  0.163-  25 2.57  26 2.57  35 2.57  32 2.57  61 2.57  62 2.57  71 2.57  68 2.57
                            52 2.57  53 2.57  49 2.57  50 2.57
  45  0.667  0.667  0.163-  27 2.57  36 2.57  33 2.57  26 2.57  63 2.57  72 2.57  69 2.57  62 2.57
                            54 2.57  53 2.57  51 2.57  50 2.57
  46  0.167  0.167  0.163-  19 2.57  22 2.57  28 2.57  29 2.57  55 2.57  58 2.57  64 2.57  65 2.57
                            37 2.57  38 2.57  40 2.57  41 2.57
  47  0.167  0.500  0.163-  20 2.57  23 2.57  29 2.57  30 2.57  56 2.57  59 2.57  65 2.57  66 2.57
                            38 2.57  41 2.57  39 2.57  42 2.57
  48  0.167  0.833  0.163-  21 2.57  24 2.57  30 2.57  28 2.57  57 2.57  60 2.57  66 2.57  64 2.57
                            39 2.57  42 2.57  40 2.57  37 2.57
  49  0.500  0.167  0.163-  31 2.57  32 2.57  22 2.57  25 2.57  67 2.57  68 2.57  58 2.57  61 2.57
                            40 2.57  41 2.57  43 2.57  44 2.57
  50  0.500  0.500  0.163-  23 2.57  32 2.57  26 2.57  33 2.57  59 2.57  68 2.57  62 2.57  69 2.57
                            41 2.57  42 2.57  44 2.57  45 2.57
  51  0.500  0.833  0.163-  24 2.57  33 2.57  31 2.57  27 2.57  60 2.57  69 2.57  67 2.57  63 2.57
                            42 2.57  40 2.57  45 2.57  43 2.57
  52  0.833  0.167  0.163-  34 2.57  35 2.57  25 2.57  19 2.57  70 2.57  71 2.57  61 2.57  55 2.57
                            43 2.57  44 2.57  37 2.57  38 2.57
  53  0.833  0.500  0.163-  26 2.57  35 2.57  20 2.57  36 2.57  62 2.57  71 2.57  56 2.57  72 2.57
                            44 2.57  38 2.57  45 2.57  39 2.57
  54  0.833  0.833  0.163-  27 2.57  36 2.57  34 2.57  21 2.57  63 2.57  72 2.57  70 2.57  57 2.57
                            45 2.57  43 2.57  39 2.57  37 2.57
  55  0.000  0.167  0.245-  73 2.57  74 2.57  82 2.57  88 2.57  38 2.57  46 2.57  37 2.57  52 2.57
                            64 2.57  65 2.57  70 2.57  71 2.57
  56  0.000  0.500  0.245-  83 2.57  74 2.57  89 2.57  75 2.57  47 2.57  38 2.57  53 2.57  39 2.57
                            65 2.57  71 2.57  66 2.57  72 2.57
  57  0.000  0.833  0.245-  84 2.57  75 2.57  73 2.57  90 2.57  48 2.57  39 2.57  37 2.57  54 2.57
                            66 2.57  64 2.57  72 2.57  70 2.57
  58  0.333  0.167  0.245-  76 2.57  77 2.57  82 2.57  85 2.57  41 2.57  46 2.57  40 2.57  49 2.57
                            64 2.57  65 2.57  67 2.57  68 2.57
  59  0.333  0.500  0.245-  83 2.57  77 2.57  86 2.57  78 2.57  47 2.57  41 2.57  50 2.57  42 2.57
                            65 2.57  68 2.57  66 2.57  69 2.57
  60  0.333  0.833  0.245-  84 2.57  78 2.57  87 2.57  76 2.57  48 2.57  42 2.57  51 2.57  40 2.57
                            66 2.57  69 2.57  64 2.57  67 2.57
  61  0.667  0.167  0.245-  79 2.57  80 2.57  88 2.57  85 2.57  43 2.57  44 2.57  52 2.57  49 2.57
                            70 2.57  71 2.57  67 2.57  68 2.57
  62  0.667  0.500  0.245-  80 2.57  89 2.57  86 2.57  81 2.57  44 2.57  53 2.57  50 2.57  45 2.57
                            71 2.57  68 2.57  72 2.57  69 2.57
  63  0.667  0.833  0.245-  81 2.57  90 2.57  79 2.57  87 2.57  45 2.57  54 2.57  43 2.57  51 2.57
                            72 2.57  70 2.57  69 2.57  67 2.57
  64  0.167  0.000  0.245-  73 2.57  76 2.57  82 2.57  84 2.57  40 2.57  46 2.57  37 2.57  48 2.57
                            55 2.57  58 2.57  57 2.57  60 2.57
  65  0.167  0.333  0.245-  74 2.57  77 2.57  82 2.57  83 2.57  41 2.57  46 2.57  38 2.57  47 2.57
                            55 2.57  58 2.57  56 2.57  59 2.57
  66  0.167  0.667  0.245-  75 2.57  78 2.57  84 2.57  83 2.57  39 2.57  42 2.57  48 2.57  47 2.57
                            57 2.57  60 2.57  59 2.57  56 2.57
  67  0.500  0.000  0.245-  85 2.57  76 2.57  87 2.57  79 2.57  49 2.57  40 2.57  51 2.57  43 2.57
                            58 2.57  60 2.57  61 2.57  63 2.57
  68  0.500  0.333  0.245-  85 2.57  77 2.57  86 2.57  80 2.57  49 2.57  41 2.57  50 2.57  44 2.57
                            58 2.57  59 2.57  61 2.57  62 2.57
  69  0.500  0.667  0.245-  78 2.57  87 2.57  86 2.57  81 2.57  42 2.57  51 2.57  50 2.57  45 2.57
                            60 2.57  59 2.57  63 2.57  62 2.57
  70  0.833  0.000  0.245-  88 2.57  79 2.57  73 2.57  90 2.57  52 2.57  43 2.57  37 2.57  54 2.57
                            61 2.57  55 2.57  63 2.57  57 2.57
  71  0.833  0.333  0.245-  88 2.57  80 2.57  89 2.57  74 2.57  52 2.57  44 2.57  53 2.57  38 2.57
                            61 2.57  62 2.57  55 2.57  56 2.57
  72  0.833  0.667  0.245-  81 2.57  90 2.57  75 2.57  89 2.57  45 2.57  54 2.57  39 2.57  53 2.57
                            63 2.57  57 2.57  62 2.57  56 2.57
[...]
   -.478E-13 -.516E-06 0.392E+04   -.228E-06 -.349E-06 -.392E+04   0.434E-22 -.660E-22 -.353E+01   -.182E-10 0.377E-11 -.380E-02
   0.168E-05 -.128E-11 0.392E+04   0.277E-06 -.228E-06 -.392E+04   -.227E-22 -.132E-22 -.353E+01   -.157E-10 -.139E-10 -.380E-02
   0.168E-05 0.168E-05 0.392E+04   0.277E-06 0.277E-06 -.392E+04   -.281E-22 -.744E-23 -.353E+01   -.161E-10 -.170E-10 -.380E-02
   0.168E-05 -.516E-06 0.392E+04   0.277E-06 -.349E-06 -.392E+04   0.124E-23 0.414E-23 -.353E+01   -.168E-10 0.576E-11 -.380E-02
   -.516E-06 -.116E-11 0.392E+04   -.349E-06 -.228E-06 -.392E+04   -.662E-23 -.232E-22 -.353E+01   0.564E-11 -.150E-10 -.380E-02
   -.516E-06 0.168E-05 0.392E+04   -.349E-06 0.277E-06 -.392E+04   0.347E-22 -.662E-23 -.353E+01   0.125E-11 -.165E-10 -.380E-02
   -.516E-06 -.516E-06 0.392E+04   -.349E-06 -.349E-06 -.392E+04   0.000E+00 -.141E-22 -.353E+01   0.578E-11 0.329E-11 -.380E-02
   0.839E-06 0.839E-06 0.392E+04   0.404E-08 0.404E-08 -.392E+04   0.993E-23 0.645E-22 -.353E+01   -.188E-10 -.185E-10 -.380E-02
   0.839E-06 0.252E-05 0.392E+04   0.404E-08 0.470E-06 -.392E+04   0.703E-23 0.248E-23 -.353E+01   -.200E-10 -.400E-10 -.380E-02
   0.839E-06 0.322E-06 0.392E+04   0.404E-08 -.174E-06 -.392E+04   0.430E-22 -.529E-22 -.353E+01   -.201E-10 -.258E-10 -.380E-02
   0.252E-05 0.839E-06 0.392E+04   0.470E-06 0.403E-08 -.392E+04   -.103E-22 -.207E-22 -.353E+01   -.335E-10 -.200E-10 -.380E-02
   0.252E-05 0.252E-05 0.392E+04   0.470E-06 0.470E-06 -.392E+04   0.116E-22 -.372E-23 -.353E+01   -.344E-10 -.414E-10 -.380E-02
   0.252E-05 0.322E-06 0.392E+04   0.470E-06 -.174E-06 -.392E+04   0.223E-22 -.199E-22 -.353E+01   -.329E-10 -.259E-10 -.380E-02
   0.322E-06 0.839E-06 0.392E+04   -.174E-06 0.403E-08 -.392E+04   0.199E-22 -.184E-22 -.353E+01   -.321E-10 -.304E-10 -.380E-02
   0.322E-06 0.252E-05 0.392E+04   -.174E-06 0.470E-06 -.392E+04   0.182E-22 -.459E-22 -.353E+01   -.301E-10 -.376E-10 -.380E-02
   0.322E-06 0.322E-06 0.392E+04   -.174E-06 -.174E-06 -.392E+04   0.142E-22 -.155E-23 -.353E+01   -.313E-10 -.240E-10 -.380E-02
   -.512E-13 0.817E-06 0.201E+04   -.301E-06 0.570E-08 -.201E+04   -.170E-22 -.496E-22 -.939E+00   -.485E-10 -.250E-10 0.875E-01
   -.582E-13 0.245E-05 0.201E+04   -.301E-06 0.626E-06 -.201E+04   0.579E-23 -.662E-23 -.939E+00   -.439E-10 0.107E-10 0.875E-01
   -.511E-13 0.314E-06 0.201E+04   -.301E-06 -.222E-06 -.201E+04   -.548E-23 0.430E-22 -.939E+00   -.427E-10 -.449E-10 0.875E-01
   0.163E-05 0.817E-06 0.201E+04   0.361E-06 0.569E-08 -.201E+04   0.178E-22 0.116E-22 -.939E+00   0.977E-11 -.255E-10 0.875E-01
   0.163E-05 0.245E-05 0.201E+04   0.361E-06 0.626E-06 -.201E+04   -.517E-23 0.132E-22 -.939E+00   0.904E-11 0.135E-10 0.875E-01
   0.163E-05 0.314E-06 0.201E+04   0.361E-06 -.222E-06 -.201E+04   -.744E-23 -.596E-22 -.939E+00   0.877E-11 -.488E-10 0.875E-01
   -.502E-06 0.817E-06 0.201E+04   -.469E-06 0.569E-08 -.201E+04   -.827E-23 -.993E-23 -.939E+00   -.385E-10 -.302E-10 0.875E-01
   -.502E-06 0.245E-05 0.201E+04   -.469E-06 0.626E-06 -.201E+04   0.165E-22 -.331E-22 -.939E+00   -.424E-10 0.765E-11 0.875E-01
   -.502E-06 0.314E-06 0.201E+04   -.469E-06 -.222E-06 -.201E+04   0.265E-22 0.364E-22 -.939E+00   -.433E-10 -.497E-10 0.875E-01
   0.817E-06 0.178E-12 0.201E+04   0.568E-08 -.301E-06 -.201E+04   -.100E-23 -.463E-22 -.939E+00   -.301E-10 -.405E-10 0.875E-01
   0.817E-06 0.163E-05 0.201E+04   0.568E-08 0.361E-06 -.201E+04   -.108E-22 0.182E-22 -.939E+00   -.304E-10 0.864E-11 0.875E-01
   0.817E-06 -.502E-06 0.201E+04   0.568E-08 -.469E-06 -.201E+04   -.869E-23 -.629E-22 -.939E+00   -.283E-10 -.450E-10 0.875E-01
   0.245E-05 -.352E-12 0.201E+04   0.626E-06 -.301E-06 -.201E+04   0.662E-23 -.529E-22 -.939E+00   0.211E-10 -.388E-10 0.875E-01
   0.245E-05 0.163E-05 0.201E+04   0.626E-06 0.361E-06 -.201E+04   -.215E-22 0.174E-22 -.939E+00   0.206E-10 0.734E-11 0.875E-01
   0.245E-05 -.502E-06 0.201E+04   0.626E-06 -.469E-06 -.201E+04   -.662E-23 0.165E-22 -.939E+00   0.177E-10 -.437E-10 0.875E-01
   0.314E-06 0.341E-12 0.201E+04   -.222E-06 -.301E-06 -.201E+04   -.108E-22 -.414E-22 -.939E+00   -.514E-10 -.375E-10 0.875E-01
   0.314E-06 0.163E-05 0.201E+04   -.222E-06 0.361E-06 -.201E+04   0.281E-22 -.393E-22 -.939E+00   -.506E-10 0.152E-11 0.875E-01
   0.314E-06 -.502E-06 0.201E+04   -.222E-06 -.469E-06 -.201E+04   0.397E-22 0.310E-22 -.939E+00   -.498E-10 -.493E-10 0.875E-01
   -.338E-13 -.193E-13 0.118E+02   -.319E-06 -.319E-06 -.120E+02   0.265E-22 -.993E-23 0.435E-01   -.177E-09 -.170E-09 0.208E+00
   -.322E-13 0.163E-05 0.118E+02   -.319E-06 0.385E-06 -.120E+02   0.215E-22 -.281E-22 0.435E-01   -.181E-09 -.178E-09 0.208E+00
   -.330E-13 -.501E-06 0.118E+02   -.319E-06 -.486E-06 -.120E+02   0.306E-22 0.108E-22 0.435E-01   -.170E-09 -.393E-09 0.208E+00
   0.163E-05 -.293E-13 0.118E+02   0.385E-06 -.319E-06 -.120E+02   0.331E-23 0.331E-22 0.435E-01   -.171E-09 -.173E-09 0.208E+00
   0.163E-05 0.163E-05 0.118E+02   0.385E-06 0.385E-06 -.120E+02   0.116E-22 0.199E-22 0.435E-01   -.171E-09 -.173E-09 0.208E+00
   0.163E-05 -.501E-06 0.118E+02   0.385E-06 -.486E-06 -.120E+02   0.000E+00 -.579E-23 0.435E-01   -.171E-09 -.394E-09 0.208E+00
   -.501E-06 -.673E-13 0.118E+02   -.486E-06 -.319E-06 -.120E+02   -.116E-22 -.662E-23 0.435E-01   -.392E-09 -.167E-09 0.208E+00
   -.501E-06 0.163E-05 0.118E+02   -.486E-06 0.385E-06 -.120E+02   -.165E-22 0.150E-22 0.435E-01   -.387E-09 -.179E-09 0.208E+00
   -.501E-06 -.501E-06 0.118E+02   -.486E-06 -.486E-06 -.120E+02   -.153E-22 -.356E-22 0.435E-01   -.398E-09 -.394E-09 0.208E+00
   0.815E-06 0.815E-06 0.118E+02   0.720E-08 0.720E-08 -.120E+02   0.165E-22 0.211E-22 0.435E-01   -.155E-09 -.150E-09 0.208E+00
   0.815E-06 0.245E-05 0.118E+02   0.720E-08 0.654E-06 -.120E+02   0.199E-22 0.662E-23 0.435E-01   -.152E-09 0.101E-09 0.208E+00
   0.815E-06 0.313E-06 0.118E+02   0.720E-08 -.241E-06 -.120E+02   -.248E-22 0.215E-22 0.435E-01   -.152E-09 -.104E-10 0.208E+00
   0.245E-05 0.815E-06 0.118E+02   0.654E-06 0.719E-08 -.120E+02   0.165E-23 0.157E-22 0.435E-01   0.106E-09 -.146E-09 0.208E+00
   0.245E-05 0.245E-05 0.118E+02   0.654E-06 0.654E-06 -.120E+02   -.157E-22 -.744E-23 0.435E-01   0.103E-09 0.101E-09 0.208E+00
   0.245E-05 0.313E-06 0.118E+02   0.654E-06 -.241E-06 -.120E+02   -.157E-22 -.232E-22 0.435E-01   0.102E-09 -.104E-10 0.208E+00
   0.313E-06 0.815E-06 0.118E+02   -.241E-06 0.719E-08 -.120E+02   0.265E-22 -.298E-22 0.435E-01   -.100E-10 -.135E-09 0.208E+00
   0.313E-06 0.245E-05 0.118E+02   -.241E-06 0.654E-06 -.120E+02   0.116E-22 0.165E-22 0.435E-01   -.962E-11 0.949E-10 0.208E+00
   0.313E-06 0.313E-06 0.118E+02   -.241E-06 -.241E-06 -.120E+02   0.447E-22 0.496E-23 0.435E-01   -.919E-11 -.406E-11 0.208E+00
   -.518E-13 0.813E-06 -.200E+04   -.306E-06 0.538E-08 0.200E+04   0.500E-22 0.860E-22 0.232E+00   -.265E-10 -.838E-10 0.620E+00
   -.452E-13 0.244E-05 -.200E+04   -.306E-06 0.639E-06 0.200E+04   0.199E-22 -.132E-22 0.232E+00   -.170E-10 -.210E-09 0.620E+00
   -.497E-13 0.313E-06 -.200E+04   -.306E-06 -.220E-06 0.200E+04   -.893E-22 -.116E-21 0.232E+00   -.167E-10 -.240E-10 0.620E+00
   0.163E-05 0.813E-06 -.200E+04   0.363E-06 0.538E-08 0.200E+04   -.968E-22 -.152E-21 0.232E+00   -.162E-09 -.864E-10 0.620E+00
   0.163E-05 0.244E-05 -.200E+04   0.363E-06 0.639E-06 0.200E+04   -.397E-22 -.397E-22 0.232E+00   -.164E-09 -.205E-09 0.620E+00
   0.163E-05 0.313E-06 -.200E+04   0.363E-06 -.220E-06 0.200E+04   0.000E+00 -.265E-22 0.232E+00   -.161E-09 -.261E-10 0.620E+00
[...]
   0.167E-05 0.167E-05 -.395E+04   0.283E-06 0.283E-06 0.394E+04   -.165E-22 0.165E-22 0.365E+01   0.260E-09 0.263E-09 0.191E+00
   0.167E-05 -.514E-06 -.395E+04   0.283E-06 -.364E-06 0.394E+04   -.538E-22 0.695E-22 0.365E+01   0.261E-09 0.386E-09 0.191E+00
   -.514E-06 0.830E-12 -.395E+04   -.364E-06 -.235E-06 0.394E+04   0.000E+00 -.463E-22 0.365E+01   0.388E-09 0.184E-09 0.191E+00
   -.514E-06 0.167E-05 -.395E+04   -.364E-06 0.283E-06 0.394E+04   0.529E-22 0.000E+00 0.365E+01   0.388E-09 0.259E-09 0.191E+00
   -.514E-06 -.514E-06 -.395E+04   -.364E-06 -.364E-06 0.394E+04   -.165E-22 0.567E-22 0.365E+01   0.386E-09 0.386E-09 0.191E+00
   0.835E-06 0.835E-06 -.395E+04   0.389E-08 0.389E-08 0.394E+04   0.554E-22 -.314E-22 0.365E+01   0.193E-09 0.196E-09 0.191E+00
   0.835E-06 0.250E-05 -.395E+04   0.389E-08 0.487E-06 0.394E+04   0.182E-22 0.165E-22 0.365E+01   0.194E-09 0.785E-11 0.191E+00
   0.835E-06 0.321E-06 -.395E+04   0.389E-08 -.174E-06 0.394E+04   -.662E-23 0.265E-22 0.365E+01   0.195E-09 0.178E-10 0.191E+00
   0.250E-05 0.835E-06 -.395E+04   0.487E-06 0.389E-08 0.394E+04   0.132E-22 -.331E-23 0.365E+01   0.862E-11 0.195E-09 0.191E+00
   0.250E-05 0.250E-05 -.395E+04   0.487E-06 0.487E-06 0.394E+04   -.182E-22 0.194E-22 0.365E+01   0.549E-11 0.763E-11 0.191E+00
   0.250E-05 0.321E-06 -.395E+04   0.487E-06 -.174E-06 0.394E+04   -.993E-23 -.232E-22 0.365E+01   0.431E-11 0.181E-10 0.191E+00
   0.321E-06 0.835E-06 -.395E+04   -.174E-06 0.389E-08 0.394E+04   0.662E-22 0.232E-22 0.365E+01   0.202E-10 0.194E-09 0.191E+00
   0.321E-06 0.250E-05 -.395E+04   -.174E-06 0.487E-06 0.394E+04   0.000E+00 0.298E-22 0.365E+01   0.223E-10 0.479E-11 0.191E+00
   0.321E-06 0.321E-06 -.395E+04   -.174E-06 -.174E-06 0.394E+04   0.265E-22 -.430E-22 0.365E+01   0.224E-10 0.204E-10 0.191E+00
   0.713E-04 0.713E-04 -.105E+02   0.876E-12 -.144E-12 -.364E-10   0.187E-21 -.141E-20 -.971E+01   -.149E-08 -.150E-08 0.198E+02

 POSITION                                       TOTAL-FORCE (eV/Angst)
      0.00000      0.00000      0.00000        -0.000000      0.000000      0.318618
      0.00000      3.63000      0.00000         0.000000     -0.000000      0.318618
      0.00000      7.26000      0.00000         0.000000     -0.000000      0.318618
      3.63000      0.00000      0.00000        -0.000000      0.000000      0.318618
      3.63000      3.63000      0.00000        -0.000000     -0.000000      0.318618
      3.63000      7.26000      0.00000        -0.000000      0.000000      0.318618
      7.26000      0.00000      0.00000         0.000000     -0.000000      0.318618
      7.26000      3.63000      0.00000         0.000000     -0.000000      0.318618
      7.26000      7.26000      0.00000         0.000000      0.000000      0.318618
      1.81500      1.81500      0.00000        -0.000000     -0.000000      0.318618
      1.81500      5.44500      0.00000        -0.000000     -0.000000      0.318618
      1.81500      9.07500      0.00000         0.000000      0.000000      0.318618
      5.44500      1.81500      0.00000        -0.000000     -0.000000      0.318618
      5.44500      5.44500      0.00000         0.000000     -0.000000      0.318618
      5.44500      9.07500      0.00000        -0.000000      0.000000      0.318618
      9.07500      1.81500      0.00000         0.000000     -0.000000      0.318618
      9.07500      5.44500      0.00000        -0.000000     -0.000000      0.318618
      9.07500      9.07500      0.00000        -0.000000      0.000000      0.318618
      0.00000      1.81500      1.81500        -0.000000      0.000000     -0.319503
      0.00000      5.44500      1.81500        -0.000000      0.000000     -0.319503
      0.00000      9.07500      1.81500        -0.000000     -0.000000     -0.319503
      3.63000      1.81500      1.81500         0.000000     -0.000000     -0.319503
      3.63000      5.44500      1.81500        -0.000000     -0.000000     -0.319503
      3.63000      9.07500      1.81500        -0.000000     -0.000000     -0.319503
      7.26000      1.81500      1.81500        -0.000000     -0.000000     -0.319503
      7.26000      5.44500      1.81500        -0.000000     -0.000000     -0.319503
      7.26000      9.07500      1.81500        -0.000000     -0.000000     -0.319503
      1.81500      0.00000      1.81500         0.000000     -0.000000     -0.319503
      1.81500      3.63000      1.81500         0.000000      0.000000     -0.319503
      1.81500      7.26000      1.81500        -0.000000     -0.000000     -0.319503
      5.44500      0.00000      1.81500        -0.000000     -0.000000     -0.319503
      5.44500      3.63000      1.81500        -0.000000      0.000000     -0.319503
      5.44500      7.26000      1.81500        -0.000000      0.000000     -0.319503
      9.07500      0.00000      1.81500         0.000000      0.000000     -0.319503
      9.07500      3.63000      1.81500         0.000000      0.000000     -0.319503
      9.07500      7.26000      1.81500         0.000000     -0.000000     -0.319503
      0.00000     -0.00000      3.58193        -0.000000     -0.000000      0.002483
      0.00000      3.63000      3.58193         0.000000     -0.000000      0.002483
      0.00000      7.26000      3.58193         0.000000     -0.000000      0.002483
      3.63000     -0.00000      3.58193         0.000000     -0.000000      0.002483
      3.63000      3.63000      3.58193         0.000000     -0.000000      0.002483
      3.63000      7.26000      3.58193         0.000000      0.000000      0.002483
      7.26000      0.00000      3.58193         0.000000      0.000000      0.002483
      7.26000      3.63000      3.58193         0.000000     -0.000000      0.002483
      7.26000      7.26000      3.58193         0.000000      0.000000      0.002483
      1.81500      1.81500      3.58193        -0.000000     -0.000000      0.002483
      1.81500      5.44500      3.58193         0.000000     -0.000000      0.002483
      1.81500      9.07500      3.58193        -0.000000      0.000000      0.002483
      5.44500      1.81500      3.58193         0.000000     -0.000000      0.002483
      5.44500      5.44500      3.58193         0.000000      0.000000      0.002483
      5.44500      9.07500      3.58193         0.000000      0.000000      0.002483
      9.07500      1.81500      3.58193         0.000000     -0.000000      0.002483
      9.07500      5.44500      3.58193         0.000000      0.000000      0.002483
      9.07500      9.07500      3.58193        -0.000000      0.000000      0.002483
     -0.00000      1.81500      5.35580         0.000000     -0.000000     -0.002526
     -0.00000      5.44500      5.35580         0.000000      0.000000     -0.002526
      0.00000      9.07500      5.35580        -0.000000      0.000000     -0.002526
      3.63000      1.81500      5.35580        -0.000000     -0.000000     -0.002526
      3.63000      5.44500      5.35580        -0.000000      0.000000     -0.002526
      3.63000      9.07500      5.35580         0.000000      0.000000     -0.002526
[...]
      3.63000     -0.00000      7.08545        -0.000000      0.000000      0.000928
      3.63000      3.63000      7.08545         0.000000     -0.000000      0.000928
      3.63000      7.26000      7.08545         0.000000     -0.000000      0.000928
      7.26000      0.00000      7.08545        -0.000000      0.000000      0.000928
      7.26000      3.63000      7.08545        -0.000000      0.000000      0.000928
      7.26000      7.26000      7.08545        -0.000000     -0.000000      0.000928
      1.81500      1.81500      7.08545         0.000000      0.000000      0.000928
      1.81500      5.44500      7.08545         0.000000     -0.000000      0.000928
      1.81500      9.07500      7.08545         0.000000     -0.000000      0.000928
      5.44500      1.81500      7.08545        -0.000000      0.000000      0.000928
      5.44500      5.44500      7.08545        -0.000000     -0.000000      0.000928
      5.44500      9.07500      7.08545        -0.000000     -0.000000      0.000928
      9.07500      1.81500      7.08545        -0.000000      0.000000      0.000928
      9.07500      5.44500      7.08545         0.000000      0.000000      0.000928
      9.07500      9.07500      7.08545         0.000000     -0.000000      0.000928
    total drift:                                0.000071      0.000071     -0.372727

  FREE ENERGIE OF THE ION-ELECTRON SYSTEM (eV)
  free  energy   TOTEN  =      -346.12048504 eV

  energy  without entropy=     -345.92032853  energy(sigma->0) =     -346.05376621

 d Force = 0.3085047E-02[-0.288E-03, 0.646E-02]  d Energy = 0.3164863E-02-0.798E-04
 d Force = 0.3227673E+03[ 0.323E+03, 0.323E+03]  d Ewald  = 0.3227673E+03-0.331E-04

 stress matrix after NEB project (eV)
    -50.29570      0.00000     -0.00000
      0.00000    -50.29570      0.00000
      0.00000      0.00000    -14.15274
  FORCES: max atom, RMS     0.002526    0.001637
  FORCE total and by dimension    0.015533    0.002526
  Stress total and by dimension   72.523203   50.295700

 reached required accuracy - stopping structural energy minimisation