 vasp.6.3.2 27Jun22 (build Aug 17 2022 15:43:34) complex

 executed on           tv2STDVTST date 2025.01.21  16:04:29

 INCAR:
   ISTART = 0
   ICHARG = 2
   IPIPOL = 3
   IVDW = 11
   IDIPOL = 3
   IVDW = 11
   ISPIN = 2
   ENCUT = 400
   PREC = Normal
   EDIFF = 2E-04
   GGA = PE
   ISMEAR = 1
   SIGMA = 0.2
   LREAL = .FALSE.
   ISYM = 1
   NSW = 800
   IBRION = 2
   POTIM = 0.5
   ISIF = 2
   EDIFFG = -.03
   NPAR = 4
   LWAVE = .FALSE.
   LCHARG = .FALSE.

 POTCAR:    PAW_PBE Cu 22Jun2005
|           W    W    AA    RRRRR   N    N  II  N    N   GGGG   !!!           |
|           W    W   A  A   R    R  NN   N  II  NN   N  G    G  !!!           |
|           W    W  A    A  R    R  N N  N  II  N N  N  G       !!!           |
|           W WW W  AAAAAA  RRRRR   N  N N  II  N  N N  G  GGG   !            |
|           WW  WW  A    A  R   R   N   NN  II  N   NN  G    G                |
|           W    W  A    A  R    R  N    N  II  N    N   GGGG   !!!           |
|     You use a magnetic or noncollinear calculation, but did not specify     |
|     the initial magnetic moment with the MAGMOM tag. Note that a            |
|     default of 1 will be used for all atoms. This ferromagnetic setup       |
|     may break the symmetry of the crystal, in particular it may rule        |
|     out finding an antiferromagnetic solution. Thence, we recommend         |
|     setting the initial magnetic moment manually or verifying carefully     |
|     that this magnetic setup is desired.                                    |

   TITEL  = PAW_PBE Cu 22Jun2005
   POMASS =   63.546; ZVAL   =   11.000    mass and valenz
   ENMAX  =  295.446; ENMIN  =  221.585 eV

  PAW_PBE Cu 22Jun2005                  :

 POSCAR: FCC Cu
  positions in cartesian coordinates
  velocities in cartesian coordinates
 exchange correlation table for  LEXCH =        8
   RHO(1)=    0.500       N(1)  =     2000
   RHO(2)=  100.500       N(2)  =     4000

 VTST: version 4.2, (08/11/21)

 CHAIN: initializing optimizer

 OPT: Using VASP Conjugate-Gradient optimizer
 CHAIN: Read ICHAIN            0

 POSCAR: FCC Cu
  positions in cartesian coordinates
  velocities in cartesian coordinates

 ion  position               nearest neighbor table
   1  0.000  0.000  0.000-   9 2.57   6 2.57   5 2.57   8 2.57   7 2.57   2 2.57   2 2.57
   2  0.000  0.500  0.000-  10 2.57   5 2.57   6 2.57   7 2.57   8 2.57   1 2.57   1 2.57
   3  0.500  0.000  0.000-  11 2.57   8 2.57   6 2.57   7 2.57   5 2.57   4 2.57   4 2.57
   4  0.500  0.500  0.000-  12 2.57   7 2.57   5 2.57   8 2.57   6 2.57   3 2.57   3 2.57
   5  0.250  0.250  0.064-  13 2.57  10 2.57  12 2.57   9 2.57  11 2.57   2 2.57   4 2.57   1 2.57
                             3 2.57   6 2.57   6 2.57
   6  0.250  0.750  0.064-  14 2.57   9 2.57  11 2.57  10 2.57  12 2.57   1 2.57   3 2.57   2 2.57
                             4 2.57   5 2.57   5 2.57
   7  0.750  0.250  0.064-  15 2.57  12 2.57  11 2.57  10 2.57   4 2.57   9 2.57   3 2.57   2 2.57
                             1 2.57   8 2.57   8 2.57
   8  0.750  0.750  0.064-  16 2.57  11 2.57  12 2.57   9 2.57  10 2.57   3 2.57   4 2.57   1 2.57
                             2 2.57   7 2.57   7 2.57
   9  0.000  0.000  0.127-   1 2.57  17 2.57   6 2.57   5 2.57   8 2.57   7 2.57  14 2.57  13 2.57
                            16 2.57  15 2.57  10 2.57  10 2.57
  10  0.000  0.500  0.127-   2 2.57  18 2.57   5 2.57   6 2.57   7 2.57  13 2.57   8 2.57  14 2.57
                            15 2.57  16 2.57   9 2.57   9 2.57
  11  0.500  0.000  0.127-   3 2.57  19 2.57   8 2.57   6 2.57   7 2.57   5 2.57  16 2.57  14 2.57
                            15 2.57  13 2.57  12 2.57  12 2.57
  12  0.500  0.500  0.127-   4 2.57  20 2.57   7 2.57   5 2.57   8 2.57   6 2.57  15 2.57  13 2.57
                            16 2.57  14 2.57  11 2.57  11 2.57
  13  0.250  0.250  0.191-   5 2.57  18 2.57  20 2.57  17 2.57  10 2.57  19 2.57  12 2.57   9 2.57
                            11 2.57  14 2.57  14 2.57
  14  0.250  0.750  0.191-   6 2.57  17 2.57  19 2.57  18 2.57  20 2.57   9 2.57  11 2.57  10 2.57
                            12 2.57  13 2.57  13 2.57
  15  0.750  0.250  0.191-   7 2.57  20 2.57  19 2.57  12 2.57  18 2.57  11 2.57  17 2.57  10 2.57
                             9 2.57  16 2.57  16 2.57
  16  0.750  0.750  0.191-   8 2.57  19 2.57  20 2.57  11 2.57  17 2.57  12 2.57  18 2.57   9 2.57
                            10 2.57  15 2.57  15 2.57
  17  0.000  0.000  0.255-   9 2.57  14 2.57  13 2.57  16 2.57  15 2.57  18 2.57  18 2.57
  18  0.000  0.500  0.255-  10 2.57  13 2.57  14 2.57  15 2.57  16 2.57  17 2.57  17 2.57
  19  0.500  0.000  0.255-  11 2.57  16 2.57  14 2.57  15 2.57  13 2.57  20 2.57  20 2.57
  20  0.500  0.500  0.255-  12 2.57  15 2.57  13 2.57  16 2.57  14 2.57  19 2.57  19 2.57

  LATTYP: Found a simple orthorhombic cell.
 ALAT       =     5.1335954666
 B/A-ratio  =     1.4142135422
 C/A-ratio  =     3.9219286231

  Lattice vectors:

 A1 = (   0.0000000000,  -5.1335954666,   0.0000000000)
 A2 = (   7.2600002289,   0.0000000000,   0.0000000000)
 A3 = (   0.0000000000,   0.0000000000,  20.1335950000)

Analysis of symmetry for initial positions (statically):
 Subroutine PRICEL returns following result:

[...]

   4 primitive cells build up your supercell.

 Routine SETGRP: Setting up the symmetry group for a
 simple orthorhombic supercell.

 Subroutine GETGRP returns: Found  8 space group operations
 (whereof  4 operations were pure point group operations)
 out of a pool of  8 trial point group operations.

The static configuration has the point symmetry C_2v.
 The point group associated with its full space group is D_2h.

Analysis of symmetry for dynamics (positions and initial velocities):
 Subroutine PRICEL returns following result:

[...]

The dynamic configuration has the point symmetry C_2v.
 The point group associated with its full space group is D_2h.

Analysis of constrained symmetry for selective dynamics:
 Subroutine PRICEL returns following result:

[...]

The constrained configuration has the point symmetry C_2v.

Analysis of structural, dynamic, and magnetic symmetry:
 Subroutine PRICEL returns following result:

  LATTYP: Found a simple orthorhombic cell.
 ALAT       =     2.5667977330
 B/A-ratio  =     1.4142135422
 C/A-ratio  =     7.8438572472

  Lattice vectors:

 A1 = (   0.0000000000,  -2.5667977330,   0.0000000000)
 A2 = (   3.6300001140,   0.0000000000,   0.0000000000)
 A3 = (   0.0000000000,   0.0000000000,  20.1335950000)

   4 primitive cells build up your supercell.

 Routine SETGRP: Setting up the symmetry group for a
 simple orthorhombic supercell.

 Subroutine GETGRP returns: Found  4 space group operations
 (whereof  4 operations were pure point group operations)
 out of a pool of  8 trial point group operations.

The overall configuration has the point symmetry C_2v.

 Subroutine INISYM returns: Found  4 space group operations
 (whereof  4 operations are pure point group operations),
 and found     4 'primitive' translations

                                     Primitive cell

  volume of cell :     187.5943

  direct lattice vectors                    reciprocal lattice vectors
     0.000000000 -2.566797733  0.000000000     0.000000000 -0.389590495  0.000000000
     3.630000114  0.000000000  0.000000000     0.275482085  0.000000000  0.000000000
     0.000000000  0.000000000 20.133595000     0.000000000  0.000000000  0.049668229

  length of vectors
     2.566797733  3.630000114 20.133595000     0.389590495  0.275482085  0.049668229

  position of ions in fractional coordinates (direct lattice)
     0.000000000  0.000000000  0.000000000
     0.500000000  0.500000000  0.063744146
     0.000000000  0.000000000  0.127488293
     0.500000000  0.500000000  0.191232439
     0.000000000  0.000000000  0.254976586

  ion indices of the primitive-cell ions
   primitive index   ion index
                 1           1
                 2           6
                 3           9
                 4          14
                 5          17

 KPOINTS: Auto-mesh

Automatic generation of k-mesh.
 Grid dimensions read from file:
 generate k-points for:    3    3    1

 Generating k-lattice:

  Cartesian coordinates                     Fractional coordinates (reciprocal lattice)
     0.045913681  0.000000000  0.000000000     0.333333333  0.000000000  0.000000000
     0.000000000  0.064931749  0.000000000     0.000000000  0.333333333  0.000000000
     0.000000000  0.000000000  0.049668229     0.000000000  0.000000000  1.000000000

  Length of vectors
     0.045913681  0.064931749  0.049668229

  Shift w.r.t. Gamma in fractional coordinates (k-lattice)
     0.000000000  0.000000000  0.000000000

 Subroutine IBZKPT returns following result:

 Found      4 irreducible k-points:

 Following reciprocal coordinates:
            Coordinates               Weight
  0.000000  0.000000  0.000000      1.000000
  0.333333  0.000000  0.000000      2.000000
  0.000000  0.333333  0.000000      2.000000
  0.333333  0.333333  0.000000      4.000000

 Following cartesian coordinates:
            Coordinates               Weight
  0.000000  0.000000  0.000000      1.000000
  0.045914  0.000000  0.000000      2.000000
  0.000000  0.064932  0.000000      2.000000
  0.045914  0.064932  0.000000      4.000000

 SYSTEM =  unknown system
 POSCAR =  FCC Cu

 Startparameter for this run:
   NWRITE =      2    write-flag & timer
   PREC   = normal    normal or accurate (medium, high low for compatibility)
   ISTART =      0    job   : 0-new  1-cont  2-samecut
   ICHARG =      2    charge: 1-file 2-atom 10-const
   ISPIN  =      2    spin polarized calculation?
   LNONCOLLINEAR =      F non collinear calculations
   LSORBIT =      F    spin-orbit coupling
   INIWAV =      1    electr: 0-lowe 1-rand  2-diag
   LASPH  =      F    aspherical Exc in radial PAW
 Electronic Relaxation 1
   ENCUT  =  400.0 eV  29.40 Ry    5.42 a.u.  11.84  8.37 32.83*2*pi/ulx,y,z
   ENINI  =  400.0     initial cutoff
   ENAUG  =  587.0 eV  augmentation charge cutoff
   NELM   =     60;   NELMIN=  2; NELMDL= -5     # of ELM steps
   EDIFF  = 0.2E-03   stopping-criterion for ELM
   LREAL  =      F    real-space projection
   NLSPLINE    = F    spline interpolate recip. space projectors
   LCOMPAT=      F    compatible to vasp.4.4
   GGA_COMPAT  = T    GGA compatible to vasp.4.4-vasp.4.6
   LMAXPAW     = -100 max onsite density
   LMAXMIX     =    2 max onsite mixed and CHGCAR
   VOSKOWN=      0    Vosko Wilk Nusair interpolation
   ROPT   =    0.00000
 Ionic relaxation
   EDIFFG = -.3E-01   stopping-criterion for IOM
   NSW    =    800    number of steps for IOM
   NBLOCK =      1;   KBLOCK =    800    inner block; outer block
   IBRION =      2    ionic relax: 0-MD 1-quasi-New 2-CG
   NFREE  =      1    steps in history (QN), initial steepest desc. (CG)
   ISIF   =      2    stress and relaxation
   IWAVPR =     11    prediction:  0-non 1-charg 2-wave 3-comb
   ISYM   =      1    0-nonsym 1-usesym 2-fastsym
   LCORR  =      T    Harris-Foulkes like correction to forces

   POTIM  = 0.5000    time-step for ionic-motion
   TEIN   =    0.0    initial temperature
[...]
 opt step  =   6.11109  (harmonic =   9.06899) maximal distance =0.00000000
 next E    =   -73.308433   (d E  =  -0.03155)

[...]

 d Force = 0.2004921E-01[ 0.136E-01, 0.265E-01]  d Energy = 0.1918009E-01 0.869E-03
 d Force =-0.4797976E+03[-0.480E+03,-0.479E+03]  d Ewald  =-0.4797994E+03 0.183E-02

[...]

 d Force =-0.6741254E-03[-0.285E-01, 0.272E-01]  d Energy = 0.1649187E-02-0.232E-02
 d Force =-0.9624456E+03[-0.964E+03,-0.961E+03]  d Ewald  =-0.9624601E+03 0.145E-01

[...]

 d Force = 0.6950442E-02[-0.698E-03, 0.146E-01]  d Energy = 0.5608575E-02 0.134E-02
 d Force = 0.4933527E+03[ 0.493E+03, 0.494E+03]  d Ewald  = 0.4933546E+03-0.195E-02

 stress matrix after NEB project (eV)
    -12.56134      0.00000      0.00000
      0.00000    -14.52410      0.00000
      0.00000      0.00000     -4.59947
  FORCES: max atom, RMS     0.083088    0.052379
  FORCE total and by dimension    0.234245    0.083088
  Stress total and by dimension   19.745682   14.524103

[...]

 eigenvalue-minimisations  :  3376
 total energy-change (2. order) :-0.1956943E-01  (-0.2045749E-01)
 number of electron     220.0001460 magnetization       0.0000003
 augmentation part      140.6100352 magnetization      -0.0000001

[...]

 Broyden mixing:
  rms(total) = 0.95116E-02    rms(broyden)= 0.95107E-02
  rms(prec ) = 0.10366E-01
  weight for this iteration     100.00

 eigenvalues of (default mixing * dielectric matrix)
  average eigenvalue GAMMA=   1.0555
  2.5455  0.8791  0.4773  0.3202

[...]

--------------------------------------- Iteration     11(   6)  ---------------------------------------

 eigenvalue-minimisations  :  2400
 total energy-change (2. order) : 0.5892390E-04  (-0.1219941E-03)
 number of electron     220.0001460 magnetization       0.0000003
 augmentation part      140.5934934 magnetization       0.0000000

 Free energy of the ion-electron system (eV)
  alpha Z        PSCENC =       389.84557517
  Ewald energy   TEWEN  =     73749.21335189
  -Hartree energ DENC   =   -100045.97995130
  -exchange      EXHF   =         0.00000000
  -V(xc)+E(xc)   XCENC  =       889.62391030
  PAW double counting   =     26014.85976834   -28166.27536311
  entropy T*S    EENTRO =        -0.03347836
  eigenvalues    EBANDS =      -717.60055299
  atomic energy  EATOM  =     27819.15280400
  Solvation  Ediel_sol  =         0.00000000
  free energy    TOTEN  =       -67.19393606 eV

  energy without entropy =      -67.16045770  energy(sigma->0) =      -67.18277661

 average (electrostatic) potential at core
  the test charge radii are     0.9430
  (the norm of the test charge is              1.0000)
       1 -71.3183       2 -71.3183       3 -71.3183       4 -71.3183       5 -71.6949
       6 -71.6949       7 -71.6949       8 -71.6949       9 -71.7336      10 -71.7336
      11 -71.7336      12 -71.7336      13 -71.7165      14 -71.7165      15 -71.7165
      16 -71.7165      17 -71.3855      18 -71.3855      19 -71.3855      20 -71.3855

 E-fermi :  -0.4472     XC(G=0):  -4.9865     alpha+bet : -4.2257

 Fermi energy:        -0.4472384160

[...]

 k-point     4 :       0.3333    0.3333    0.0000
  band No.  band energies     occupation
      1      -8.1311      1.00000
      2      -7.2455      1.00000
      3      -6.4773      1.00000
      4      -6.2471      1.00000
      5      -5.8862      1.00000
      6      -5.6159      1.00000
      7      -5.2326      1.00000
      8      -4.9380      1.00000
      9      -4.7900      1.00000
     10      -4.7466      1.00000
     11      -4.7205      1.00000
     12      -4.6758      1.00000
     13      -4.6150      1.00000
     14      -4.5651      1.00000
     15      -4.4907      1.00000
     16      -4.4636      1.00000
     17      -4.4220      1.00000
     18      -4.3891      1.00000
     19      -4.3305      1.00000
     20      -4.2759      1.00000
     21      -4.2574      1.00000
     22      -4.2563      1.00000
     23      -4.1643      1.00000
     24      -4.0909      1.00000
     25      -4.0268      1.00000
     26      -4.0024      1.00000
     27      -3.9304      1.00000
     28      -3.9016      1.00000
     29      -3.8506      1.00000
     30      -3.8177      1.00000
     31      -3.8090      1.00000
     32      -3.7711      1.00000
     33      -3.7562      1.00000
     34      -3.7432      1.00000
     35      -3.6891      1.00000
     36      -3.6598      1.00000
     37      -3.6292      1.00000
     38      -3.6235      1.00000
     39      -3.5909      1.00000
     40      -3.5654      1.00000
     41      -3.4931      1.00000
     42      -3.4713      1.00000
     43      -3.3723      1.00000
     44      -3.3512      1.00000
     45      -3.3475      1.00000
     46      -3.3086      1.00000
     47      -3.2912      1.00000
     48      -3.2611      1.00000
     49      -3.2493      1.00000
     50      -3.1912      1.00000
     51      -3.1859      1.00000
     52      -3.1738      1.00000
     53      -3.1689      1.00000
     54      -3.1664      1.00000
     55      -3.1429      1.00000
     56      -3.1392      1.00000
     57      -3.1110      1.00000
     58      -3.0457      1.00000
     59      -3.0407      1.00000
     60      -2.9755      1.00000
[...]
    130       4.8558     -0.00000
    131       5.0723      0.00000
    132       5.2475      0.00000
    133       5.2883      0.00000
    134       5.6133      0.00000
    135       5.7946      0.00000
    136       5.9614      0.00000
    137       6.0160      0.00000
    138       6.4108      0.00000
    139       6.5150      0.00000
    140       6.6757      0.00000
    141       6.6779      0.00000
    142       6.7935      0.00000
    143       6.9563      0.00000
    144       7.0264      0.00000
 Fermi energy:        -0.4472384160

 spin component 2

[...]

 k-point     4 :       0.3333    0.3333    0.0000
  band No.  band energies     occupation
      1      -8.1311      1.00000
      2      -7.2455      1.00000
      3      -6.4773      1.00000
      4      -6.2471      1.00000
      5      -5.8862      1.00000
      6      -5.6159      1.00000
      7      -5.2326      1.00000
      8      -4.9380      1.00000
      9      -4.7900      1.00000
     10      -4.7466      1.00000
     11      -4.7205      1.00000
     12      -4.6758      1.00000
     13      -4.6150      1.00000
     14      -4.5651      1.00000
     15      -4.4907      1.00000
     16      -4.4636      1.00000
     17      -4.4220      1.00000
     18      -4.3891      1.00000
     19      -4.3305      1.00000
     20      -4.2759      1.00000
     21      -4.2574      1.00000
     22      -4.2563      1.00000
     23      -4.1643      1.00000
     24      -4.0909      1.00000
     25      -4.0268      1.00000
     26      -4.0024      1.00000
     27      -3.9304      1.00000
     28      -3.9016      1.00000
     29      -3.8506      1.00000
     30      -3.8177      1.00000
     31      -3.8090      1.00000
     32      -3.7711      1.00000
     33      -3.7562      1.00000
     34      -3.7432      1.00000
     35      -3.6891      1.00000
     36      -3.6598      1.00000
     37      -3.6292      1.00000
     38      -3.6235      1.00000
     39      -3.5909      1.00000
     40      -3.5654      1.00000
     41      -3.4931      1.00000
     42      -3.4713      1.00000
     43      -3.3723      1.00000
     44      -3.3512      1.00000
     45      -3.3475      1.00000
     46      -3.3086      1.00000
     47      -3.2912      1.00000
     48      -3.2611      1.00000
     49      -3.2493      1.00000
     50      -3.1912      1.00000
     51      -3.1859      1.00000
     52      -3.1738      1.00000
     53      -3.1689      1.00000
     54      -3.1664      1.00000
     55      -3.1429      1.00000
     56      -3.1392      1.00000
     57      -3.1110      1.00000
     58      -3.0457      1.00000
     59      -3.0407      1.00000
     60      -2.9755      1.00000
[...]
    130       4.8558     -0.00000
    131       5.0723      0.00000
    132       5.2475      0.00000
    133       5.2883      0.00000
    134       5.6132      0.00000
    135       5.7946      0.00000
    136       5.9610      0.00000
    137       6.0159      0.00000
    138       6.4108      0.00000
    139       6.5150      0.00000
    140       6.6757      0.00000
    141       6.6775      0.00000
    142       6.7934      0.00000
    143       6.9561      0.00000
    144       7.0262      0.00000

[...]

 soft charge-density along one line, spin component           2
         0         1         2         3         4         5         6         7         8         9
 total charge-density along one line

------------------------ aborting loop because EDIFF is reached ----------------------------------------

 DIPCOR: dipole corrections for dipol
 direction  3 min pos   121,
 dipolmoment           0.000000      0.000000      0.020414 electrons x Angstroem
 Tr[quadrupol]     -1737.461591

 energy correction for charged system         0.000000 eV
 dipol+quadrupol energy correction            0.000050 eV
 added-field ion interaction          0.000000 eV  (added to PSCEN)

  *************** adding dipol energy to TOTEN NOW ****************

         DFTD3 V3.0 Rev 1
 Edisp (eV)   -6.12383

 E6    (eV) :    -2.3330
 E8    (eV) :    -3.7908
 % E8        : 61.90

  FORCE on cell =-STRESS in cart. coord.  units (eV):
  Direction    XX          YY          ZZ          XY          YZ          ZX
  Alpha Z   389.84558   389.84558   389.84558
  Ewald   87587.97350 88294.11396************    -0.00000     0.00000    -0.00000
  Hartree 94926.89399 95400.76524-90279.51603    -0.00000    -0.00000    -0.00000
  E(xc)   -1284.30314 -1283.54533 -1286.35478    -0.00000    -0.00000     0.00000
  Local  ************************190061.00187    -0.00000    -0.00000     0.00000
  n-local  -443.89143  -441.76024  -448.38714     3.92339     0.00000     0.00000
  augment  1890.48258  1885.22879  1893.97413     0.00000     0.00000     0.00000
  Kinetic  1794.98435  1786.98588  1802.41835     2.69766    -0.00000     0.00000
  Fock        0.00000     0.00000     0.00000     0.00000     0.00000     0.00000
  vdW        -7.50347    -7.84519    -3.49596    -0.00000     0.00000    -0.00000
  Total     -12.14674   -13.97387    -3.43382     0.00000     0.00000     0.00000
  in kB     -25.93526   -29.83648    -7.33177     0.00000     0.00000     0.00000

 VOLUME and BASIS-vectors are now :
  energy-cutoff  :      400.00
  volume of cell :      750.38
      direct lattice vectors                 reciprocal lattice vectors
     7.260000229  0.000000000  0.000000000     0.137741042  0.000000000  0.000000000
     0.000000000  5.133595467  0.000000000     0.000000000  0.194795248  0.000000000
     0.000000000  0.000000000 20.133595000     0.000000000  0.000000000  0.049668229

  length of vectors
     7.260000229  5.133595467 20.133595000     0.137741042  0.194795248  0.049668229

 FORCES acting on ions
    electron-ion (+dipol)            ewald-force                    non-local-force                 convergence-correction
   -.843E-13 -.424E-13 0.302E+04   -.303E-06 -.144E-06 -.302E+04   0.000E+00 -.132E-22 -.551E+01   -.109E-09 -.537E-10 -.126E+00
   -.623E-13 0.116E-05 0.302E+04   -.303E-06 0.196E-06 -.302E+04   0.149E-22 0.000E+00 -.551E+01   -.109E-09 0.983E-10 -.126E+00
   0.183E-05 -.765E-12 0.302E+04   0.163E-06 -.144E-06 -.302E+04   0.414E-23 0.000E+00 -.551E+01   0.257E-09 -.538E-10 -.126E+00
   0.183E-05 0.116E-05 0.302E+04   0.163E-06 0.196E-06 -.302E+04   -.662E-23 -.265E-22 -.551E+01   0.257E-09 0.984E-10 -.126E+00
   0.836E-06 -.132E-05 0.164E+04   -.156E-06 -.234E-06 -.164E+04   -.132E-22 0.000E+00 -.338E+00   0.954E-10 0.614E-10 -.214E+00
   0.836E-06 -.188E-06 0.164E+04   -.156E-06 0.127E-06 -.164E+04   -.529E-22 0.000E+00 -.338E+00   0.954E-10 -.967E-10 -.214E+00
   0.251E-05 -.132E-05 0.164E+04   0.443E-06 -.234E-06 -.164E+04   0.132E-22 0.132E-22 -.338E+00   -.311E-09 0.615E-10 -.214E+00
   0.251E-05 -.188E-06 0.164E+04   0.443E-06 0.127E-06 -.164E+04   0.860E-22 0.000E+00 -.338E+00   -.311E-09 -.968E-10 -.214E+00
   -.113E-12 -.407E-13 0.340E+02   -.479E-06 -.150E-06 -.340E+02   0.000E+00 0.000E+00 0.160E+00   0.318E-09 0.201E-10 -.209E+00
   -.114E-12 0.114E-05 0.340E+02   -.479E-06 0.254E-06 -.340E+02   0.000E+00 0.000E+00 0.160E+00   0.318E-09 -.191E-09 -.209E+00
   0.171E-05 -.314E-13 0.340E+02   0.201E-06 -.150E-06 -.340E+02   -.165E-23 0.000E+00 0.160E+00   -.662E-10 0.201E-10 -.209E+00
   0.171E-05 0.114E-05 0.340E+02   0.201E-06 0.254E-06 -.340E+02   -.165E-23 0.000E+00 0.160E+00   -.663E-10 -.191E-09 -.209E+00
   0.830E-06 -.131E-05 -.169E+04   -.156E-06 -.237E-06 0.169E+04   -.265E-22 -.132E-22 -.672E+00   0.121E-09 0.272E-10 0.534E-01
   0.830E-06 -.188E-06 -.169E+04   -.156E-06 0.125E-06 0.169E+04   -.265E-22 0.662E-23 -.672E+00   0.121E-09 0.169E-10 0.534E-01
   0.249E-05 -.131E-05 -.169E+04   0.454E-06 -.237E-06 0.169E+04   -.265E-22 -.993E-23 -.672E+00   0.103E-09 0.271E-10 0.534E-01
   0.249E-05 -.188E-06 -.169E+04   0.454E-06 0.125E-06 0.169E+04   0.265E-22 -.331E-23 -.672E+00   0.103E-09 0.171E-10 0.534E-01
   -.721E-13 -.187E-11 -.301E+04   -.331E-06 -.142E-06 0.300E+04   0.132E-22 0.132E-22 0.534E+01   -.111E-09 0.845E-10 0.993E-01
   -.471E-13 0.115E-05 -.301E+04   -.331E-06 0.206E-06 0.300E+04   0.132E-22 0.000E+00 0.534E+01   -.110E-09 0.293E-10 0.993E-01
   0.180E-05 -.101E-11 -.301E+04   0.165E-06 -.142E-06 0.300E+04   -.662E-23 0.000E+00 0.534E+01   -.357E-09 0.845E-10 0.993E-01
   0.180E-05 0.115E-05 -.301E+04   0.165E-06 0.206E-06 0.300E+04   -.199E-22 0.132E-22 0.534E+01   -.357E-09 0.292E-10 0.993E-01
   0.240E-04 0.894E-06 0.563E+01   0.624E-13 0.542E-14 0.591E-11   -.108E-22 -.199E-22 -.410E+01   -.119E-09 -.775E-11 -.158E+01

 POSITION                                       TOTAL-FORCE (eV/Angst)
      0.00000      0.00000      0.00000        -0.000000     -0.000000      0.431876
      0.00000      2.56680      0.00000        -0.000000     -0.000000      0.431876
      3.63000      0.00000      0.00000         0.000000     -0.000000      0.431876
      3.63000      2.56680      0.00000         0.000000      0.000000      0.431876
      1.81500      1.28340      1.28340         0.000000      0.000000     -0.419768
      1.81500      3.85020      1.28340         0.000000      0.000000     -0.419768
      5.44500      1.28340      1.28340         0.000000      0.000000     -0.419768
      5.44500      3.85020      1.28340        -0.000000      0.000000     -0.419768
     -0.00000     -0.00000      2.51405         0.000000      0.000000     -0.022181
      0.00000      2.56680      2.51405         0.000000     -0.000000     -0.022181
      3.63000      0.00000      2.51405        -0.000000      0.000000     -0.022181
      3.63000      2.56680      2.51405         0.000000     -0.000000     -0.022181
      1.81500      1.28340      3.83066        -0.000000     -0.000000      0.000633
      1.81500      3.85020      3.83066         0.000000     -0.000000      0.000633
      5.44500      1.28340      3.83066         0.000000     -0.000000      0.000633
      5.44500      3.85020      3.83066        -0.000000     -0.000000      0.000633
     -0.00000      0.00000      4.97149         0.000000      0.000000      0.009440
      0.00000      2.56680      4.97149         0.000000      0.000000      0.009440
      3.63000      0.00000      4.97149         0.000000      0.000000      0.009440
      3.63000      2.56680      4.97149         0.000000     -0.000000      0.009440
    total drift:                                0.000024      0.000001     -0.054536

  FREE ENERGIE OF THE ION-ELECTRON SYSTEM (eV)
  free  energy   TOTEN  =       -73.31771161 eV

  energy  without entropy=      -73.28423324  energy(sigma->0) =      -73.30655215

 d Force = 0.3967751E-02[-0.107E-02, 0.900E-02]  d Energy = 0.4462795E-02-0.495E-03
 d Force =-0.2445276E+03[-0.245E+03,-0.245E+03]  d Ewald  =-0.2445295E+03 0.186E-02

 stress matrix after NEB project (eV)
    -12.14674      0.00000      0.00000
      0.00000    -13.97387      0.00000
      0.00000      0.00000     -3.43382
  FORCES: max atom, RMS     0.022181    0.010785
  FORCE total and by dimension    0.048230    0.022181
  Stress total and by dimension   18.830915   13.973867
 Conjugate gradient step on ions:
 trial-energy change:   -0.004463  1 .order   -0.003968   -0.009001    0.001066
  (g-gl).g = 0.226E-02      g.g   = 0.265E-02  gl.gl    = 0.691E-02
 g(Force)  = 0.265E-02   g(Stress)= 0.000E+00 ortho     = 0.149E-03
 gamma     =   0.32759
 trial     =   3.33890
 opt step  =   2.98545  (harmonic =   2.98545) maximal distance =0.00642116
 next E    =   -73.317273   (d E  =  -0.00402)

 reached required accuracy - stopping structural energy minimisation