 vasp.6.3.2 27Jun22 (build Aug 17 2022 15:43:34) complex

 executed on           tv2STDVTST date 2025.02.04  13:35:02

 INCAR:
   ISTART = 0
   ICHARG = 2
   IPIPOL = 3
   IVDW = 11
   ISPIN = 2
   ENCUT = 400
   PREC = Normal
   EDIFF = 2E-04
   GGA = PE
   ISMEAR = 1
   SIGMA = 0.2
   LREAL = .FALSE.
   ISYM = 1
   NSW = 800
   IBRION = 2
   POTIM = 0.5
   ISIF = 2
   EDIFFG = -.03
   NPAR = 4
   LWAVE = .FALSE.
   LCHARG = .FALSE.

 POTCAR:    PAW_PBE Cu 22Jun2005
 POTCAR:    PAW_PBE H 15Jun2001
|           W    W    AA    RRRRR   N    N  II  N    N   GGGG   !!!           |
|           W    W   A  A   R    R  NN   N  II  NN   N  G    G  !!!           |
|           W    W  A    A  R    R  N N  N  II  N N  N  G       !!!           |
|           W WW W  AAAAAA  RRRRR   N  N N  II  N  N N  G  GGG   !            |
|           WW  WW  A    A  R   R   N   NN  II  N   NN  G    G                |
|           W    W  A    A  R    R  N    N  II  N    N   GGGG   !!!           |
|     You use a magnetic or noncollinear calculation, but did not specify     |
|     the initial magnetic moment with the MAGMOM tag. Note that a            |
|     default of 1 will be used for all atoms. This ferromagnetic setup       |
|     may break the symmetry of the crystal, in particular it may rule        |
|     out finding an antiferromagnetic solution. Thence, we recommend         |
|     setting the initial magnetic moment manually or verifying carefully     |
|     that this magnetic setup is desired.                                    |

   TITEL  = PAW_PBE Cu 22Jun2005
   POMASS =   63.546; ZVAL   =   11.000    mass and valenz
   ENMAX  =  295.446; ENMIN  =  221.585 eV

   TITEL  = PAW_PBE H 15Jun2001
   POMASS =    1.000; ZVAL   =    1.000    mass and valenz
   ENMAX  =  250.000; ENMIN  =  200.000 eV

  PAW_PBE Cu 22Jun2005                  :
  PAW_PBE H 15Jun2001                   :

 POSCAR: FCC Cu
  positions in cartesian coordinates
 exchange correlation table for  LEXCH =        8
   RHO(1)=    0.500       N(1)  =     2000
   RHO(2)=  100.500       N(2)  =     4000

 VTST: version 4.2, (08/11/21)

 CHAIN: initializing optimizer

 OPT: Using VASP Conjugate-Gradient optimizer
 CHAIN: Read ICHAIN            0

 POSCAR: FCC Cu
  positions in cartesian coordinates

 ion  position               nearest neighbor table
   1  0.000  0.000  0.000-   3 2.51   2 2.57   2 2.57   2 2.57   2 2.57
   2  0.500  0.500  0.054-   4 2.50   3 2.54   3 2.54   3 2.54   3 2.54   1 2.57   1 2.57   1 2.57
                             1 2.57
   3  0.000  0.000  0.105-   1 2.51   2 2.54   2 2.54   2 2.54   2 2.54   5 2.54   4 2.56   4 2.56
                             4 2.56   4 2.56
   4  0.500  0.500  0.158-   2 2.50   6 2.52   5 2.56   5 2.56   5 2.56   5 2.56   3 2.56   3 2.56
                             3 2.56   3 2.56
   5  0.000  0.000  0.211-   3 2.54   6 2.55   6 2.55   6 2.55   6 2.55   7 2.55   4 2.56   4 2.56
                             4 2.56   4 2.56
   6  0.500  0.500  0.263-   8 2.44   4 2.52   5 2.55   5 2.55   5 2.55   5 2.55   7 2.58   7 2.58
                             7 2.58   7 2.58
   7  0.000  0.000  0.317-   8 2.50   8 2.50   8 2.50   8 2.50   5 2.55   6 2.58   6 2.58   6 2.58
                             6 2.58
   8  0.500  0.500  0.365-  10 1.59   6 2.44   7 2.50   7 2.50   7 2.50   7 2.50
   9  0.500  0.000  0.427-  10 0.75
  10  0.500  0.291  0.427-   9 0.75   8 1.59

  LATTYP: Found a simple orthorhombic cell.
 ALAT       =     2.5667977333
 B/A-ratio  =     1.4142135422
 C/A-ratio  =     9.3438571494

  Lattice vectors:

 A1 = (   0.0000000000,  -2.5667977333,   0.0000000000)
 A2 = (   3.6300001144,   0.0000000000,   0.0000000000)
 A3 = (   0.0000000000,   0.0000000000,  23.9837913513)

Analysis of symmetry for initial positions (statically):
 Subroutine PRICEL returns:
 Original cell was already a primitive cell.

 Routine SETGRP: Setting up the symmetry group for a
 simple orthorhombic supercell.

 Subroutine GETGRP returns: Found  2 space group operations
 (whereof  2 operations were pure point group operations)
 out of a pool of  8 trial point group operations.

The static configuration has the point symmetry C_1h.

Analysis of symmetry for dynamics (positions and initial velocities):
 Subroutine PRICEL returns:
 Original cell was already a primitive cell.

[...]

The dynamic configuration has the point symmetry C_1h.

Analysis of structural, dynamic, and magnetic symmetry:
 Subroutine PRICEL returns:
 Original cell was already a primitive cell.

 Routine SETGRP: Setting up the symmetry group for a
 simple orthorhombic supercell.

 Subroutine GETGRP returns: Found  2 space group operations
 (whereof  2 operations were pure point group operations)
 out of a pool of  8 trial point group operations.

The overall configuration has the point symmetry C_1h.

 Subroutine INISYM returns: Found  2 space group operations
 (whereof  2 operations are pure point group operations),
 and found     1 'primitive' translations

                                     Primitive cell

  volume of cell :     223.4684

  direct lattice vectors                    reciprocal lattice vectors
     3.630000114  0.000000000  0.000000000     0.275482085  0.000000000  0.000000000
     0.000000000  2.566797733  0.000000000     0.000000000  0.389590495  0.000000000
     0.000000000  0.000000000 23.983791351     0.000000000  0.000000000  0.041694826

  length of vectors
     3.630000114  2.566797733 23.983791351     0.275482085  0.389590495  0.041694826

  position of ions in fractional coordinates (direct lattice)
     0.000000000  0.000000000  0.000000000
     0.500000000  0.500000000  0.053511090
     0.000000000  0.000000000  0.104681476
     0.500000000  0.500000000  0.157929955
     0.000000000  0.000000000  0.210708991
     0.500000000  0.500000000  0.262890478
     0.000000000  0.000000000  0.317115916
     0.500000000  0.500000000  0.364675901
     0.500000000  0.000000000  0.426907920
     0.500000000  0.290634509  0.426907920

  ion indices of the primitive-cell ions
   primitive index   ion index
                 1           1
                 2           2
                 3           3
                 4           4
                 5           5
                 6           6
                 7           7
                 8           8
                 9           9
                10          10

 KPOINTS: Auto-mesh

Automatic generation of k-mesh.
 Grid dimensions read from file:
 generate k-points for:    3    3    1

 Generating k-lattice:

  Cartesian coordinates                     Fractional coordinates (reciprocal lattice)
     0.091827362  0.000000000  0.000000000     0.333333333  0.000000000  0.000000000
     0.000000000  0.129863498  0.000000000     0.000000000  0.333333333  0.000000000
     0.000000000  0.000000000  0.041694826     0.000000000  0.000000000  1.000000000

  Length of vectors
     0.091827362  0.129863498  0.041694826

  Shift w.r.t. Gamma in fractional coordinates (k-lattice)
     0.000000000  0.000000000  0.000000000

 Subroutine IBZKPT returns following result:

 Found      4 irreducible k-points:

 Following reciprocal coordinates:
            Coordinates               Weight
  0.000000  0.000000  0.000000      1.000000
  0.333333  0.000000  0.000000      2.000000
  0.000000  0.333333  0.000000      2.000000
  0.333333  0.333333  0.000000      4.000000

 Following cartesian coordinates:
            Coordinates               Weight
  0.000000  0.000000  0.000000      1.000000
  0.091827  0.000000  0.000000      2.000000
  0.000000  0.129863  0.000000      2.000000
  0.091827  0.129863  0.000000      4.000000

 SYSTEM =  unknown system
 POSCAR =  FCC Cu

 Startparameter for this run:
   NWRITE =      2    write-flag & timer
   PREC   = normal    normal or accurate (medium, high low for compatibility)
   ISTART =      0    job   : 0-new  1-cont  2-samecut
   ICHARG =      2    charge: 1-file 2-atom 10-const
   ISPIN  =      2    spin polarized calculation?
   LNONCOLLINEAR =      F non collinear calculations
   LSORBIT =      F    spin-orbit coupling
   INIWAV =      1    electr: 0-lowe 1-rand  2-diag
   LASPH  =      F    aspherical Exc in radial PAW
 Electronic Relaxation 1
   ENCUT  =  400.0 eV  29.40 Ry    5.42 a.u.   5.92  4.19 39.11*2*pi/ulx,y,z
   ENINI  =  400.0     initial cutoff
   ENAUG  =  587.0 eV  augmentation charge cutoff
   NELM   =     60;   NELMIN=  2; NELMDL= -5     # of ELM steps
   EDIFF  = 0.2E-03   stopping-criterion for ELM
   LREAL  =      F    real-space projection
   NLSPLINE    = F    spline interpolate recip. space projectors
   LCOMPAT=      F    compatible to vasp.4.4
   GGA_COMPAT  = T    GGA compatible to vasp.4.4-vasp.4.6
   LMAXPAW     = -100 max onsite density
   LMAXMIX     =    2 max onsite mixed and CHGCAR
   VOSKOWN=      0    Vosko Wilk Nusair interpolation
   ROPT   =    0.00000   0.00000
 Ionic relaxation
   EDIFFG = -.3E-01   stopping-criterion for IOM
   NSW    =    800    number of steps for IOM
   NBLOCK =      1;   KBLOCK =    800    inner block; outer block
   IBRION =      2    ionic relax: 0-MD 1-quasi-New 2-CG
   NFREE  =      1    steps in history (QN), initial steepest desc. (CG)
   ISIF   =      2    stress and relaxation
   IWAVPR =     11    prediction:  0-non 1-charg 2-wave 3-comb
   ISYM   =      1    0-nonsym 1-usesym 2-fastsym
   LCORR  =      T    Harris-Foulkes like correction to forces

   POTIM  = 0.5000    time-step for ionic-motion
   TEIN   =    0.0    initial temperature
   TEBEG  =    0.0;   TEEND  =   0.0 temperature during run
   SMASS  =  -3.00    Nose mass-parameter (am)
   estimated Nose-frequenzy (Omega)   =  0.10E-29 period in steps = 0.13E+47 mass=  -0.301E-27a.u.
   SCALEE = 1.0000    scale energy and forces
   NPACO  =    256;   APACO  = 10.0  distance and # of slots for P.C.
   PSTRESS=    0.0 pullay stress

  Mass of Ions in am
   POMASS =  63.55  1.00
  Ionic Valenz
   ZVAL   =  11.00  1.00
  Atomic Wigner-Seitz radii
  virtual crystal weights
   VCA    =   1.00  1.00
   NELECT =      90.0000    total number of electrons
   NUPDOWN=      -1.0000    fix difference up-down

 DOS related values:
   EMIN   =  10.00;   EMAX   =-10.00  energy-range for DOS
   EFERMI =   0.00
   ISMEAR =     1;   SIGMA  =   0.20  broadening in eV -4-tet -1-fermi 0-gaus

 Electronic relaxation 2 (details)
   IALGO  =     38    algorithm
   LDIAG  =      T    sub-space diagonalisation (order eigenvalues)
   LSUBROT=      F    optimize rotation matrix (better conditioning)
   TURBO    =      0    0=normal 1=particle mesh
   IRESTART =      0    0=no restart 2=restart with 2 vectors
   NREBOOT  =      0    no. of reboots
   NMIN     =      0    reboot dimension
   EREF     =   0.00    reference energy to select bands
   IMIX   =      4    mixing-type and parameters
     AMIX     =   0.40;   BMIX     =  1.00
     AMIX_MAG =   1.60;   BMIX_MAG =  1.00
     AMIN     =   0.10
     WC   =   100.;   INIMIX=   1;  MIXPRE=   1;  MAXMIX= -45

 Intra band minimization:
   WEIMIN = 0.0010     energy-eigenvalue tresh-hold
   EBREAK =  0.83E-06  absolut break condition
   DEPER  =   0.30     relativ break condition

[...]
 d Force =-0.2351800E+03[-0.236E+03,-0.235E+03]  d Ewald  =-0.2351914E+03 0.114E-01

 stress matrix after NEB project (eV)
     -4.50229      0.00000      0.00000
      0.00000     -4.30590      0.75346
      0.00000      0.75346      0.92834
  FORCES: max atom, RMS     0.883907    0.409600
  FORCE total and by dimension    1.295270    0.883274
  Stress total and by dimension    6.388160    4.502289
 Conjugate gradient step on ions:
 trial-energy change:   -0.107024  1 .order   -0.108865   -0.134157   -0.083573
  (g-gl).g = 0.135E+00      g.g   = 0.139E+00  gl.gl    = 0.448E+00
 g(Force)  = 0.139E+00   g(Stress)= 0.000E+00 ortho     = 0.422E-02
 gamma     =   0.30166
 trial     =   0.95417
 opt step  =   2.53063  (harmonic =   2.53063) maximal distance =0.16333771
 next E    =   -38.308401   (d E  =  -0.17790)

[...]

 d Force = 0.3802953E-01[ 0.230E-01, 0.530E-01]  d Energy = 0.3908700E-01-0.106E-02
 d Force = 0.9413405E+00[ 0.792E+00, 0.109E+01]  d Ewald  = 0.9432501E+00-0.191E-02

 stress matrix after NEB project (eV)
     -3.71524      0.00000      0.00000
      0.00000     -3.22506      0.89705
      0.00000      0.89705      1.48726
  FORCES: max atom, RMS     0.508306    0.221656
  FORCE total and by dimension    0.700937    0.365818
  Stress total and by dimension    5.293894    3.715236
 Conjugate gradient step on ions:
 trial-energy change:   -0.039087  1 .order   -0.038030   -0.053040   -0.023019
  (g-gl).g = 0.123E+00      g.g   = 0.117E+00  gl.gl    = 0.846E-01
 g(Force)  = 0.117E+00   g(Stress)= 0.000E+00 ortho     =-0.953E-04
 gamma     =   1.45341
 trial     =   0.45553
 opt step  =   0.71758  (harmonic =   0.80482) maximal distance =0.06383812
 next E    =   -38.441922   (d E  =  -0.04591)

[...]

 d Force =-0.1829656E-01[-0.548E-01, 0.182E-01]  d Energy =-0.1802337E-01-0.273E-03
 d Force = 0.1598275E+03[ 0.159E+03, 0.160E+03]  d Ewald  = 0.1598276E+03-0.156E-03

[...]

 d Force =-0.8604021E-04[-0.281E-03, 0.109E-03]  d Energy =-0.1758089E-03 0.898E-04
 d Force =-0.1055748E+02[-0.106E+02,-0.106E+02]  d Ewald  =-0.1055748E+02 0.205E-07

[...]

 d Force =-0.1422237E-03[-0.949E-03, 0.664E-03]  d Energy = 0.2426502E-04-0.166E-03
 d Force = 0.2626292E+02[ 0.262E+02, 0.263E+02]  d Ewald  = 0.2626295E+02-0.320E-04

[...]

 d Force = 0.3204245E-04[-0.924E-04, 0.156E-03]  d Energy =-0.9804585E-04 0.130E-03
 d Force = 0.7226019E+01[ 0.722E+01, 0.723E+01]  d Ewald  = 0.7226017E+01 0.141E-05

[...]

 d Force =-0.6985003E-04[-0.174E-03, 0.343E-04]  d Energy = 0.1289071E-04-0.827E-04
 d Force =-0.2681999E+01[-0.268E+01,-0.268E+01]  d Ewald  =-0.2681999E+01-0.708E-07

[...]

 d Force =-0.2480285E-05[-0.150E-03, 0.145E-03]  d Energy =-0.5332273E-04 0.508E-04
 d Force = 0.2240340E+01[ 0.224E+01, 0.224E+01]  d Ewald  = 0.2240339E+01 0.412E-07

[...]

 d Force =-0.3990332E-06[-0.994E-05, 0.914E-05]  d Energy = 0.5608533E-06-0.960E-06
 d Force = 0.5694619E+00[ 0.569E+00, 0.569E+00]  d Ewald  = 0.5694619E+00 0.115E-08

[...]

 d Force =-0.2547044E-04[-0.561E-04, 0.518E-05]  d Energy =-0.9893401E-05-0.156E-04
 d Force =-0.2966357E+00[-0.297E+00,-0.297E+00]  d Ewald  =-0.2966357E+00-0.189E-09

[...]

 d Force = 0.8589824E-05[-0.389E-05, 0.211E-04]  d Energy = 0.7219235E-05 0.137E-05
 d Force =-0.1357895E+00[-0.136E+00,-0.136E+00]  d Ewald  =-0.1357895E+00 0.124E-09

[...]

 d Force = 0.2263618E-06[-0.154E-06, 0.607E-06]  d Energy = 0.1018349E-05-0.792E-06
 d Force = 0.2116992E-01[ 0.212E-01, 0.212E-01]  d Ewald  = 0.2116992E-01 0.182E-09

[...]

 d Force = 0.2019421E-07[ 0.921E-08, 0.312E-07]  d Energy = 0.6489910E-07-0.447E-07
 d Force =-0.4285841E-02[-0.429E-02,-0.429E-02]  d Ewald  =-0.4285840E-02-0.655E-10

[...]

 eigenvalues of (default mixing * dielectric matrix)
  average eigenvalue GAMMA=   0.4765
  0.4765

[...]

 eigenvalue-minimisations  :   528
 total energy-change (2. order) : 0.9789943E-05  (-0.5799878E-05)
 number of electron      90.0000365 magnetization       0.0000000
 augmentation part       56.1812590 magnetization       0.0000000

[...]

 stress matrix after NEB project (eV)
     -4.82421      0.00000      0.00000
      0.00000     -4.37264      0.14785
      0.00000      0.14785     -0.38831
  FORCES: max atom, RMS     0.052122    0.027771
  FORCE total and by dimension    0.087820    0.050036
  Stress total and by dimension    6.525909    4.824207
 Conjugate gradient step on ions:
 trial-energy change:   -0.000256  1 .order   -0.000219   -0.000316   -0.000123
  (g-gl).g = 0.818E-03      g.g   = 0.480E-03  gl.gl    = 0.183E-02
 g(Force)  = 0.480E-03   g(Stress)= 0.000E+00 ortho     =-0.291E-04
 gamma     =   0.44790
 trial     =   0.67680
 opt step  =   1.10576  (harmonic =   1.10576) maximal distance =0.00732842
 next E    =   -38.553460   (d E  =  -0.00026)

[...]

 stress matrix after NEB project (eV)
     -4.84277      0.00000      0.00000
      0.00000     -4.36942      0.15117
      0.00000      0.15117     -0.40035
  FORCES: max atom, RMS     0.056080    0.024834
  FORCE total and by dimension    0.078533    0.046114
  Stress total and by dimension    6.538366    4.842769

[...]

 Broyden mixing:
  rms(total) = 0.38991E-02    rms(broyden)= 0.38935E-02
  rms(prec ) = 0.41387E-02
  weight for this iteration     100.00

[...]

--------------------------------------- Iteration     91(   2)  ---------------------------------------

 eigenvalue-minimisations  :  1352
 total energy-change (2. order) :-0.1615008E-03  (-0.1965184E-03)
 number of electron      90.0000367 magnetization       0.0000000
 augmentation part       56.1800108 magnetization       0.0000000

 Free energy of the ion-electron system (eV)
  alpha Z        PSCENC =       216.17040255
  Ewald energy   TEWEN  =     42377.56394222
  -Hartree energ DENC   =    -53118.05831394
  -exchange      EXHF   =         0.00000000
  -V(xc)+E(xc)   XCENC  =       362.16003903
  PAW double counting   =     10525.36285531   -11387.35290683
  entropy T*S    EENTRO =        -0.00399658
  eigenvalues    EBANDS =      -163.82514570
  atomic energy  EATOM  =     11152.61838693
  Solvation  Ediel_sol  =         0.00000000
  free energy    TOTEN  =       -35.36473702 eV

  energy without entropy =      -35.36074044  energy(sigma->0) =      -35.36340483

 average (electrostatic) potential at core
  the test charge radii are     0.9430  0.5201
  (the norm of the test charge is              1.0000)
       1 -69.5214       2 -69.9822       3 -70.1307       4 -70.1609       5 -70.1523
       6 -70.1718       7 -70.0163       8 -69.7768       9 -37.2925      10 -37.2177

 E-fermi :   0.9571     XC(G=0):  -6.5940     alpha+bet : -5.9229

 Fermi energy:         0.9570573727

[...]

 k-point     4 :       0.3333    0.3333    0.0000
  band No.  band energies     occupation
      1      -5.9002      1.00000
      2      -4.6370      1.00000
      3      -3.9058      1.00000
      4      -3.3628      1.00000
      5      -3.2797      1.00000
      6      -3.0070      1.00000
      7      -2.9419      1.00000
      8      -2.8276      1.00000
      9      -2.7973      1.00000
     10      -2.6419      1.00000
     11      -2.6143      1.00000
     12      -2.3912      1.00000
     13      -2.3253      1.00000
     14      -2.2374      1.00000
     15      -2.1340      1.00000
     16      -2.1089      1.00000
     17      -2.0456      1.00000
     18      -1.9870      1.00000
     19      -1.8680      1.00000
     20      -1.8134      1.00000
     21      -1.7840      1.00000
     22      -1.7448      1.00000
     23      -1.6968      1.00000
     24      -1.6174      1.00000
     25      -1.4795      1.00000
     26      -1.3659      1.00000
     27      -1.3403      1.00000
     28      -1.1245      1.00000
     29      -1.0947      1.00000
     30      -1.0309      1.00000
     31      -0.9418      1.00000
     32      -0.8914      1.00000
     33      -0.8227      1.00000
     34      -0.8031      1.00000
     35      -0.7083      1.00000
     36      -0.6353      1.00000
     37      -0.5716      1.00000
     38      -0.5467      1.00000
     39      -0.5009      1.00000
     40      -0.4252      1.00000
     41      -0.4036      1.00000
     42      -0.3326      1.00000
     43      -0.0039      1.00000
     44       0.8578      0.86809
     45       1.8919     -0.00000
     46       2.3339     -0.00000
     47       2.8452     -0.00000
     48       4.1960     -0.00000
     49       4.2387     -0.00000
     50       5.6384     -0.00000
     51       5.8450     -0.00000
     52       6.2547     -0.00000
     53       6.5522      0.00000
     54       7.1014      0.00000
     55       7.8958      0.00000
     56       8.1397      0.00000
     57       8.3779      0.00000
     58       8.5554      0.00000
     59       9.1805      0.00000
     60       9.4878      0.00000
 Fermi energy:         0.9570573727

 spin component 2

[...]

 k-point     4 :       0.3333    0.3333    0.0000
  band No.  band energies     occupation
      1      -5.9002      1.00000
      2      -4.6370      1.00000
      3      -3.9058      1.00000
      4      -3.3628      1.00000
      5      -3.2797      1.00000
      6      -3.0070      1.00000
      7      -2.9419      1.00000
      8      -2.8276      1.00000
      9      -2.7973      1.00000
     10      -2.6419      1.00000
     11      -2.6143      1.00000
     12      -2.3912      1.00000
     13      -2.3253      1.00000
     14      -2.2374      1.00000
     15      -2.1340      1.00000
     16      -2.1089      1.00000
     17      -2.0456      1.00000
     18      -1.9870      1.00000
     19      -1.8680      1.00000
     20      -1.8134      1.00000
     21      -1.7840      1.00000
     22      -1.7448      1.00000
     23      -1.6968      1.00000
     24      -1.6174      1.00000
     25      -1.4795      1.00000
     26      -1.3659      1.00000
     27      -1.3403      1.00000
     28      -1.1245      1.00000
     29      -1.0947      1.00000
     30      -1.0309      1.00000
     31      -0.9418      1.00000
     32      -0.8914      1.00000
     33      -0.8227      1.00000
     34      -0.8031      1.00000
     35      -0.7083      1.00000
     36      -0.6353      1.00000
     37      -0.5716      1.00000
     38      -0.5467      1.00000
     39      -0.5009      1.00000
     40      -0.4252      1.00000
     41      -0.4036      1.00000
     42      -0.3326      1.00000
     43      -0.0039      1.00000
     44       0.8578      0.86809
     45       1.8919     -0.00000
     46       2.3339     -0.00000
     47       2.8452     -0.00000
     48       4.1960     -0.00000
     49       4.2387     -0.00000
     50       5.6384     -0.00000
     51       5.8450     -0.00000
     52       6.2547     -0.00000
     53       6.5522      0.00000
     54       7.1014      0.00000
     55       7.8958      0.00000
     56       8.1397      0.00000
     57       8.3779      0.00000
     58       8.5554      0.00000
     59       9.1805      0.00000
     60       9.4878      0.00000

[...]

 soft charge-density along one line, spin component           2
         0         1         2         3         4         5         6         7         8         9
 total charge-density along one line

------------------------ aborting loop because EDIFF is reached ----------------------------------------

         DFTD3 V3.0 Rev 1
 Edisp (eV)   -3.18952

 E6    (eV) :    -1.3073
 E8    (eV) :    -1.8822
 % E8        : 59.01

  FORCE on cell =-STRESS in cart. coord.  units (eV):
  Direction    XX          YY          ZZ          XY          YZ          ZX
  Alpha Z   216.17040   216.17040   216.17040
  Ewald   48058.41096 48231.89887-53912.75107     0.00000     4.48402     0.00000
  Hartree 51155.09945 51278.47255-49314.98052    -0.00000    -1.02951    -0.00000
  E(xc)    -520.48286  -520.15160  -520.61959    -0.00000     0.07954    -0.00000
  Local  ************************102219.26984    -0.00000    -0.14570    -0.00000
  n-local  -179.20492  -175.25337  -179.83695     6.95329    -0.40019    -0.01161
  augment   755.68072   758.70783   757.51593     0.00000     0.04127    -0.00000
  Kinetic   739.04297   736.83961   737.57061     6.73418    -2.95885     0.00558
  Fock        0.00000     0.00000     0.00000     0.00000     0.00000     0.00000
  vdW        -3.90622    -3.86814    -2.79022     0.00000     0.05228    -0.00000
  Total      -4.85298    -4.40068    -0.45156     0.00000     0.12287     0.00000
  in kB     -34.79390   -31.55109    -3.23750     0.00000     0.88091     0.00000

 VOLUME and BASIS-vectors are now :
  energy-cutoff  :      400.00
  volume of cell :      223.47
      direct lattice vectors                 reciprocal lattice vectors
     3.630000114  0.000000000  0.000000000     0.275482085  0.000000000  0.000000000
     0.000000000  2.566797733  0.000000000     0.000000000  0.389590495  0.000000000
     0.000000000  0.000000000 23.983791351     0.000000000  0.000000000  0.041694826

  length of vectors
     3.630000114  2.566797733 23.983791351     0.275482085  0.389590495  0.041694826

 FORCES acting on ions
    electron-ion (+dipol)            ewald-force                    non-local-force                 convergence-correction
   -.187E-13 0.509E+00 0.460E+04   -.744E-07 -.466E+00 -.459E+04   0.000E+00 0.227E+00 -.618E+01   0.741E-10 -.292E+00 -.123E+00
   0.737E-06 0.116E+00 0.352E+04   0.134E-06 -.901E-01 -.352E+04   0.000E+00 0.733E-01 0.164E+01   0.113E-10 -.104E+00 -.259E+00
   -.508E-13 -.488E+00 0.209E+04   -.125E-06 0.423E+00 -.209E+04   0.000E+00 -.389E-01 -.117E+01   0.130E-10 0.109E+00 -.215E+00
   0.752E-06 0.905E-01 0.773E+03   0.129E-06 -.743E-01 -.773E+03   0.000E+00 -.336E-01 0.364E+00   0.742E-11 0.218E-01 -.485E+00
   -.542E-13 0.699E-02 -.578E+03   -.128E-06 0.103E-02 0.579E+03   0.000E+00 -.347E-01 -.503E-01   -.461E-10 0.299E-01 -.565E+00
   0.760E-06 -.272E+00 -.189E+04   0.124E-06 0.272E+00 0.189E+04   0.000E+00 -.842E-01 0.114E+01   -.507E-10 0.860E-01 -.305E+00
   -.496E-13 -.118E+00 -.333E+04   -.136E-06 0.119E+00 0.333E+04   0.000E+00 -.124E-01 -.175E+01   -.416E-10 0.122E-01 -.747E-01
   0.805E-06 -.262E+01 -.440E+04   0.820E-07 0.256E+01 0.439E+04   0.000E+00 0.216E-01 0.751E+01   0.136E-10 0.334E-01 0.229E-01
   0.556E-07 0.141E+02 -.399E+03   -.460E-08 -.173E+02 0.395E+03   0.000E+00 0.330E+01 0.313E+01   0.103E-10 -.252E-04 0.732E-02
   0.510E-07 -.115E+02 -.388E+03   -.170E-08 0.146E+02 0.391E+03   0.000E+00 -.318E+01 -.343E+01   0.267E-11 -.295E-02 0.551E-02
   0.316E-05 -.152E+00 0.829E+00   0.318E-13 0.657E-13 -.909E-12   0.000E+00 0.238E+00 0.120E+01   -.620E-11 -.107E+00 -.199E+01

 POSITION                                       TOTAL-FORCE (eV/Angst)
      0.00000     -0.05434     -0.04799         0.000000     -0.023444      0.002364
      1.81500      1.21210      1.08657         0.000000     -0.006484     -0.001082
      0.00000     -0.10628      2.38789         0.000000      0.007416     -0.022679
      1.81500      1.15601      3.63828         0.000000      0.008836     -0.004279
      0.00000     -0.14499      4.89294         0.000000      0.007087      0.015755
      1.81500      1.12692      6.15548         0.000000      0.005614     -0.003797
      0.00000     -0.15731      7.44764         0.000000      0.003067     -0.006994
      1.81500      1.12958      8.58328         0.000000     -0.001611      0.001555
      1.81500      0.59482     10.53257         0.000000      0.007929      0.017638
      1.81500      1.12307     11.09355         0.000000     -0.008410      0.001519
    total drift:                                0.000003     -0.020833      0.042703

  FREE ENERGIE OF THE ION-ELECTRON SYSTEM (eV)
  free  energy   TOTEN  =       -38.55425783 eV

  energy  without entropy=      -38.55026124  energy(sigma->0) =      -38.55292563

 d Force = 0.1503615E-03[ 0.518E-04, 0.249E-03]  d Energy = 0.2269513E-03-0.766E-04
 d Force = 0.5093785E+01[ 0.509E+01, 0.510E+01]  d Ewald  = 0.5093785E+01-0.275E-07

 stress matrix after NEB project (eV)
     -4.85298      0.00000      0.00000
      0.00000     -4.40068      0.12287
      0.00000      0.12287     -0.45156
  FORCES: max atom, RMS     0.023861    0.014556
  FORCE total and by dimension    0.046032    0.023444
  Stress total and by dimension    6.568982    4.852981
 Conjugate gradient step on ions:
 trial-energy change:   -0.000227  1 .order   -0.000150   -0.000249   -0.000052
  (g-gl).g = 0.365E-03      g.g   = 0.298E-03  gl.gl    = 0.440E-03
 g(Force)  = 0.298E-03   g(Stress)= 0.000E+00 ortho     = 0.172E-04
 gamma     =   0.82989
 trial     =   0.79837
 opt step  =   1.00817  (harmonic =   1.00817) maximal distance =0.00358199
 next E    =   -38.554188   (d E  =  -0.00016)

 reached required accuracy - stopping structural energy minimisation