 vasp.6.3.2 27Jun22 (build Aug 17 2022 15:43:34) complex

 executed on           tv2STDVTST date 2025.02.04  13:29:01

 INCAR:
   ISTART = 0
   ICHARG = 2
   IPIPOL = 3
   IVDW = 11
   ISPIN = 2
   ENCUT = 400
   PREC = Normal
   EDIFF = 2E-04
   GGA = PE
   ISMEAR = 1
   SIGMA = 0.2
   LREAL = .FALSE.
   ISYM = 1
   NSW = 800
   IBRION = 2
   POTIM = 0.5
   ISIF = 2
   EDIFFG = -.03
   NPAR = 4
   LWAVE = .FALSE.
   LCHARG = .FALSE.

 POTCAR:    PAW_PBE Cu 22Jun2005
 POTCAR:    PAW_PBE H 15Jun2001
|           W    W    AA    RRRRR   N    N  II  N    N   GGGG   !!!           |
|           W    W   A  A   R    R  NN   N  II  NN   N  G    G  !!!           |
|           W    W  A    A  R    R  N N  N  II  N N  N  G       !!!           |
|           W WW W  AAAAAA  RRRRR   N  N N  II  N  N N  G  GGG   !            |
|           WW  WW  A    A  R   R   N   NN  II  N   NN  G    G                |
|           W    W  A    A  R    R  N    N  II  N    N   GGGG   !!!           |
|     You use a magnetic or noncollinear calculation, but did not specify     |
|     the initial magnetic moment with the MAGMOM tag. Note that a            |
|     default of 1 will be used for all atoms. This ferromagnetic setup       |
|     may break the symmetry of the crystal, in particular it may rule        |
|     out finding an antiferromagnetic solution. Thence, we recommend         |
|     setting the initial magnetic moment manually or verifying carefully     |
|     that this magnetic setup is desired.                                    |

   TITEL  = PAW_PBE Cu 22Jun2005
   POMASS =   63.546; ZVAL   =   11.000    mass and valenz
   ENMAX  =  295.446; ENMIN  =  221.585 eV

   TITEL  = PAW_PBE H 15Jun2001
   POMASS =    1.000; ZVAL   =    1.000    mass and valenz
   ENMAX  =  250.000; ENMIN  =  200.000 eV

  PAW_PBE Cu 22Jun2005                  :
  PAW_PBE H 15Jun2001                   :

 POSCAR: FCC Cu
  positions in cartesian coordinates
 exchange correlation table for  LEXCH =        8
   RHO(1)=    0.500       N(1)  =     2000
   RHO(2)=  100.500       N(2)  =     4000

 VTST: version 4.2, (08/11/21)

 CHAIN: initializing optimizer

 OPT: Using VASP Conjugate-Gradient optimizer
 CHAIN: Read ICHAIN            0

 POSCAR: FCC Cu
  positions in cartesian coordinates

 ion  position               nearest neighbor table
   1  0.000  0.000  0.000-   3 2.51   2 2.57   2 2.57   2 2.57   2 2.57
   2  0.500  0.500  0.054-   4 2.50   3 2.54   3 2.54   3 2.54   3 2.54   1 2.57   1 2.57   1 2.57
                             1 2.57
   3  0.000  0.000  0.105-   1 2.51   2 2.54   2 2.54   2 2.54   2 2.54   5 2.54   4 2.56   4 2.56
                             4 2.56   4 2.56
   4  0.500  0.500  0.158-   2 2.50   6 2.52   5 2.56   5 2.56   5 2.56   5 2.56   3 2.56   3 2.56
                             3 2.56   3 2.56
   5  0.000  0.000  0.211-   3 2.54   6 2.55   6 2.55   6 2.55   6 2.55   7 2.55   4 2.56   4 2.56
                             4 2.56   4 2.56
   6  0.500  0.500  0.263-   8 2.44   4 2.52   5 2.55   5 2.55   5 2.55   5 2.55   7 2.58   7 2.58
                             7 2.58   7 2.58
   7  0.000  0.000  0.317-   8 2.50   8 2.50   8 2.50   8 2.50   5 2.55   6 2.58   6 2.58   6 2.58
                             6 2.58
   8  0.500  0.500  0.365-   6 2.44   7 2.50   7 2.50   7 2.50   7 2.50
   9  0.500  0.000  0.427-  10 0.75
  10  0.500  0.000  0.458-   9 0.75

  LATTYP: Found a simple orthorhombic cell.
 ALAT       =     2.5667977333
 B/A-ratio  =     1.4142135422
 C/A-ratio  =     9.3438571494

  Lattice vectors:

 A1 = (   0.0000000000,  -2.5667977333,   0.0000000000)
 A2 = (   3.6300001144,   0.0000000000,   0.0000000000)
 A3 = (   0.0000000000,   0.0000000000,  23.9837913513)

Analysis of symmetry for initial positions (statically):
 Subroutine PRICEL returns:
 Original cell was already a primitive cell.

 Routine SETGRP: Setting up the symmetry group for a
 simple orthorhombic supercell.

 Subroutine GETGRP returns: Found  4 space group operations
 (whereof  4 operations were pure point group operations)
 out of a pool of  8 trial point group operations.

The static configuration has the point symmetry C_2v.

Analysis of symmetry for dynamics (positions and initial velocities):
 Subroutine PRICEL returns:
 Original cell was already a primitive cell.

[...]

The dynamic configuration has the point symmetry C_2v.

Analysis of structural, dynamic, and magnetic symmetry:
 Subroutine PRICEL returns:
 Original cell was already a primitive cell.

 Routine SETGRP: Setting up the symmetry group for a
 simple orthorhombic supercell.

 Subroutine GETGRP returns: Found  4 space group operations
 (whereof  4 operations were pure point group operations)
 out of a pool of  8 trial point group operations.

The overall configuration has the point symmetry C_2v.

 Subroutine INISYM returns: Found  4 space group operations
 (whereof  4 operations are pure point group operations),
 and found     1 'primitive' translations

                                     Primitive cell

  volume of cell :     223.4684

  direct lattice vectors                    reciprocal lattice vectors
     3.630000114  0.000000000  0.000000000     0.275482085  0.000000000  0.000000000
     0.000000000  2.566797733  0.000000000     0.000000000  0.389590495  0.000000000
     0.000000000  0.000000000 23.983791351     0.000000000  0.000000000  0.041694826

  length of vectors
     3.630000114  2.566797733 23.983791351     0.275482085  0.389590495  0.041694826

  position of ions in fractional coordinates (direct lattice)
     0.000000000  0.000000000  0.000000000
     0.500000000  0.500000000  0.053511090
     0.000000000  0.000000000  0.104681476
     0.500000000  0.500000000  0.157929955
     0.000000000  0.000000000  0.210708991
     0.500000000  0.500000000  0.262890478
     0.000000000  0.000000000  0.317115916
     0.500000000  0.500000000  0.364675901
     0.500000000  0.000000000  0.426907920
     0.500000000  0.000000000  0.458012260

  ion indices of the primitive-cell ions
   primitive index   ion index
                 1           1
                 2           2
                 3           3
                 4           4
                 5           5
                 6           6
                 7           7
                 8           8
                 9           9
                10          10

 KPOINTS: Auto-mesh

Automatic generation of k-mesh.
 Grid dimensions read from file:
 generate k-points for:    3    3    1

 Generating k-lattice:

  Cartesian coordinates                     Fractional coordinates (reciprocal lattice)
     0.091827362  0.000000000  0.000000000     0.333333333  0.000000000  0.000000000
     0.000000000  0.129863498  0.000000000     0.000000000  0.333333333  0.000000000
     0.000000000  0.000000000  0.041694826     0.000000000  0.000000000  1.000000000

  Length of vectors
     0.091827362  0.129863498  0.041694826

  Shift w.r.t. Gamma in fractional coordinates (k-lattice)
     0.000000000  0.000000000  0.000000000

 Subroutine IBZKPT returns following result:

 Found      4 irreducible k-points:

 Following reciprocal coordinates:
            Coordinates               Weight
  0.000000  0.000000  0.000000      1.000000
  0.333333  0.000000  0.000000      2.000000
  0.000000  0.333333  0.000000      2.000000
  0.333333  0.333333  0.000000      4.000000

 Following cartesian coordinates:
            Coordinates               Weight
  0.000000  0.000000  0.000000      1.000000
  0.091827  0.000000  0.000000      2.000000
  0.000000  0.129863  0.000000      2.000000
  0.091827  0.129863  0.000000      4.000000

 SYSTEM =  unknown system
 POSCAR =  FCC Cu

 Startparameter for this run:
   NWRITE =      2    write-flag & timer
   PREC   = normal    normal or accurate (medium, high low for compatibility)
   ISTART =      0    job   : 0-new  1-cont  2-samecut
   ICHARG =      2    charge: 1-file 2-atom 10-const
   ISPIN  =      2    spin polarized calculation?
   LNONCOLLINEAR =      F non collinear calculations
   LSORBIT =      F    spin-orbit coupling
   INIWAV =      1    electr: 0-lowe 1-rand  2-diag
   LASPH  =      F    aspherical Exc in radial PAW
 Electronic Relaxation 1
   ENCUT  =  400.0 eV  29.40 Ry    5.42 a.u.   5.92  4.19 39.11*2*pi/ulx,y,z
   ENINI  =  400.0     initial cutoff
   ENAUG  =  587.0 eV  augmentation charge cutoff
   NELM   =     60;   NELMIN=  2; NELMDL= -5     # of ELM steps
   EDIFF  = 0.2E-03   stopping-criterion for ELM
   LREAL  =      F    real-space projection
   NLSPLINE    = F    spline interpolate recip. space projectors
   LCOMPAT=      F    compatible to vasp.4.4
   GGA_COMPAT  = T    GGA compatible to vasp.4.4-vasp.4.6
   LMAXPAW     = -100 max onsite density
   LMAXMIX     =    2 max onsite mixed and CHGCAR
   VOSKOWN=      0    Vosko Wilk Nusair interpolation
   ROPT   =    0.00000   0.00000
 Ionic relaxation
   EDIFFG = -.3E-01   stopping-criterion for IOM
   NSW    =    800    number of steps for IOM
   NBLOCK =      1;   KBLOCK =    800    inner block; outer block
   IBRION =      2    ionic relax: 0-MD 1-quasi-New 2-CG
   NFREE  =      1    steps in history (QN), initial steepest desc. (CG)
   ISIF   =      2    stress and relaxation
   IWAVPR =     11    prediction:  0-non 1-charg 2-wave 3-comb
   ISYM   =      1    0-nonsym 1-usesym 2-fastsym
   LCORR  =      T    Harris-Foulkes like correction to forces

   POTIM  = 0.5000    time-step for ionic-motion
   TEIN   =    0.0    initial temperature
   TEBEG  =    0.0;   TEEND  =   0.0 temperature during run
   SMASS  =  -3.00    Nose mass-parameter (am)
   estimated Nose-frequenzy (Omega)   =  0.10E-29 period in steps = 0.13E+47 mass=  -0.301E-27a.u.
   SCALEE = 1.0000    scale energy and forces
   NPACO  =    256;   APACO  = 10.0  distance and # of slots for P.C.
   PSTRESS=    0.0 pullay stress

  Mass of Ions in am
   POMASS =  63.55  1.00
  Ionic Valenz
   ZVAL   =  11.00  1.00
  Atomic Wigner-Seitz radii
  virtual crystal weights
   VCA    =   1.00  1.00
   NELECT =      90.0000    total number of electrons
   NUPDOWN=      -1.0000    fix difference up-down

 DOS related values:
   EMIN   =  10.00;   EMAX   =-10.00  energy-range for DOS
   EFERMI =   0.00
   ISMEAR =     1;   SIGMA  =   0.20  broadening in eV -4-tet -1-fermi 0-gaus

 Electronic relaxation 2 (details)
   IALGO  =     38    algorithm
   LDIAG  =      T    sub-space diagonalisation (order eigenvalues)
   LSUBROT=      F    optimize rotation matrix (better conditioning)
   TURBO    =      0    0=normal 1=particle mesh
   IRESTART =      0    0=no restart 2=restart with 2 vectors
   NREBOOT  =      0    no. of reboots
   NMIN     =      0    reboot dimension
   EREF     =   0.00    reference energy to select bands
   IMIX   =      4    mixing-type and parameters
     AMIX     =   0.40;   BMIX     =  1.00
     AMIX_MAG =   1.60;   BMIX_MAG =  1.00
     AMIN     =   0.10
     WC   =   100.;   INIMIX=   1;  MIXPRE=   1;  MAXMIX= -45

 Intra band minimization:
   WEIMIN = 0.0010     energy-eigenvalue tresh-hold
   EBREAK =  0.83E-06  absolut break condition
   DEPER  =   0.30     relativ break condition

   TIME   =   0.40     timestep for ELM

[...]
  (g-gl).g = 0.456E-01      g.g   = 0.468E-01  gl.gl    = 0.167E+00
 g(Force)  = 0.468E-01   g(Stress)= 0.000E+00 ortho     = 0.127E-02
 gamma     =   0.27306
 trial     =   0.91142
 opt step  =   2.13039  (harmonic =   2.13039) maximal distance =0.06314251
 next E    =   -38.437010   (d E  =  -0.05027)

[...]

 stress matrix after NEB project (eV)
     -4.38212      0.00000      0.00000
      0.00000     -3.99362      0.00000
      0.00000      0.00000      1.06098
  FORCES: max atom, RMS     0.572739    0.208802
  FORCE total and by dimension    0.660291    0.572739
  Stress total and by dimension    6.023096    4.382124
 Conjugate gradient step on ions:
 trial-energy change:   -0.009842  1 .order   -0.009317   -0.018793    0.000160
  (g-gl).g = 0.103E-01      g.g   = 0.160E-01  gl.gl    = 0.468E-01
 g(Force)  = 0.160E-01   g(Stress)= 0.000E+00 ortho     =-0.111E-02
 gamma     =   0.21969
 trial     =   1.18899
 opt step  =   1.17896  (harmonic =   1.17896) maximal distance =0.02662714
 next E    =   -38.448043   (d E  =  -0.00932)

[...]

 d Force =-0.1198243E-04[-0.253E-04, 0.135E-05]  d Energy = 0.1905879E-04-0.310E-04
 d Force = 0.6546845E+00[ 0.655E+00, 0.655E+00]  d Ewald  = 0.6546845E+00-0.728E-10

[...]

 d Force = 0.6654165E-02[ 0.394E-02, 0.937E-02]  d Energy = 0.6937891E-02-0.284E-03
 d Force = 0.9127056E+00[ 0.859E+00, 0.966E+00]  d Ewald  = 0.9128455E+00-0.140E-03

[...]

 d Force =-0.4245730E-03[-0.716E-02, 0.631E-02]  d Energy =-0.3966021E-03-0.280E-04
 d Force = 0.4889993E+02[ 0.487E+02, 0.491E+02]  d Ewald  = 0.4890054E+02-0.607E-03

[...]

 d Force =-0.2150886E-04[-0.489E-04, 0.586E-05]  d Energy =-0.9372925E-05-0.121E-04
 d Force =-0.3311809E+00[-0.331E+00,-0.331E+00]  d Ewald  =-0.3311809E+00 0.444E-09

[...]

 d Force = 0.3446789E-04[-0.193E-04, 0.883E-04]  d Energy =-0.8421675E-05 0.429E-04
 d Force =-0.1406196E+02[-0.141E+02,-0.141E+02]  d Ewald  =-0.1406196E+02-0.528E-07

[...]

 d Force =-0.1505683E-05[-0.458E-04, 0.428E-04]  d Energy = 0.1307183E-04-0.146E-04
 d Force =-0.9353323E+01[-0.935E+01,-0.935E+01]  d Ewald  =-0.9353321E+01-0.109E-05

[...]

 d Force =-0.1086145E-04[-0.789E-04, 0.572E-04]  d Energy = 0.4573415E-05-0.154E-04
 d Force = 0.6958814E-01[ 0.694E-01, 0.698E-01]  d Ewald  = 0.6958810E-01 0.425E-07

[...]

 d Force = 0.9363072E-05[-0.202E-04, 0.389E-04]  d Energy =-0.5237216E-06 0.989E-05
 d Force =-0.1070424E+01[-0.107E+01,-0.107E+01]  d Ewald  =-0.1070424E+01-0.122E-07

[...]

 d Force =-0.6139019E-05[-0.451E-04, 0.328E-04]  d Energy =-0.2520442E-05-0.362E-05
 d Force =-0.3102249E+00[-0.310E+00,-0.310E+00]  d Ewald  =-0.3102249E+00-0.437E-10

[...]

 d Force = 0.1155094E-04[-0.298E-05, 0.261E-04]  d Energy = 0.9104907E-05 0.245E-05
 d Force = 0.1795806E+00[ 0.180E+00, 0.180E+00]  d Ewald  = 0.1795806E+00-0.444E-09

[...]

 d Force = 0.3352399E-07[ 0.912E-08, 0.579E-07]  d Energy =-0.3274710E-06 0.361E-06
 d Force = 0.7160316E-02[ 0.716E-02, 0.716E-02]  d Ewald  = 0.7160316E-02-0.116E-09

[...]

 stress matrix after NEB project (eV)
     -4.95973      0.00000      0.00000
      0.00000     -4.50554      0.00000
      0.00000      0.00000     -0.28870
  FORCES: max atom, RMS     0.042630    0.021305
  FORCE total and by dimension    0.067372    0.042630
  Stress total and by dimension    6.706873    4.959730
 Conjugate gradient step on ions:
 trial-energy change:   -0.000381  1 .order   -0.000292   -0.000413   -0.000171
  (g-gl).g = 0.821E-03      g.g   = 0.928E-03  gl.gl    = 0.709E-03
 g(Force)  = 0.928E-03   g(Stress)= 0.000E+00 ortho     = 0.117E-03
 gamma     =   1.15909
 trial     =   0.38885
 opt step  =   0.66388  (harmonic =   0.66388) maximal distance =0.00911293
 next E    =   -38.531875   (d E  =  -0.00035)

[...]

 d Force = 0.6990556E-04[ 0.187E-04, 0.121E-03]  d Energy = 0.1008877E-03-0.310E-04
 d Force =-0.3613407E+01[-0.361E+01,-0.361E+01]  d Ewald  =-0.3613407E+01 0.639E-07

[...]

 d Force =-0.1200100E-04[-0.274E-04, 0.340E-05]  d Energy = 0.8910431E-04-0.101E-03
 d Force =-0.6579360E+00[-0.658E+00,-0.658E+00]  d Ewald  =-0.6579360E+00 0.291E-10

[...]

 d Force =-0.6467099E-05[-0.201E-04, 0.712E-05]  d Energy =-0.1107918E-05-0.536E-05
 d Force = 0.2427568E+00[ 0.243E+00, 0.243E+00]  d Ewald  = 0.2427568E+00 0.138E-09

[...]

 d Force = 0.7271380E-05[-0.255E-06, 0.148E-04]  d Energy = 0.7831580E-05-0.560E-06
 d Force =-0.1791673E+00[-0.179E+00,-0.179E+00]  d Ewald  =-0.1791673E+00-0.371E-09

[...]

 stress matrix after NEB project (eV)
     -4.95935      0.00000      0.00000
      0.00000     -4.51344      0.00000
      0.00000      0.00000     -0.24672
  FORCES: max atom, RMS     0.038406    0.016402
  FORCE total and by dimension    0.051867    0.038406
  Stress total and by dimension    6.710227    4.959352
 Conjugate gradient step on ions:
 trial-energy change:   -0.000158  1 .order   -0.000103   -0.000123   -0.000083
  (g-gl).g = 0.439E-03      g.g   = 0.282E-03  gl.gl    = 0.928E-03
 g(Force)  = 0.282E-03   g(Stress)= 0.000E+00 ortho     =-0.187E-04
 gamma     =   0.47270
 trial     =   0.45138
 opt step  =   1.36752  (harmonic =   1.36752) maximal distance =0.00772704
 next E    =   -38.532218   (d E  =  -0.00019)

[...]

 eigenvalue-minimisations  :  1216
 total energy-change (2. order) :-0.1844411E-03  (-0.2405193E-03)
 number of electron      90.0000860 magnetization       0.0000000
 augmentation part       56.1848133 magnetization       0.0000000

 Broyden mixing:
  rms(total) = 0.44410E-02    rms(broyden)= 0.44389E-02
  rms(prec ) = 0.46667E-02
  weight for this iteration     100.00

 eigenvalues of (default mixing * dielectric matrix)
  average eigenvalue GAMMA=   0.8062
  0.8062

[...]

--------------------------------------- Iteration     93(   3)  ---------------------------------------

 eigenvalue-minimisations  :   624
 total energy-change (2. order) : 0.1853329E-04  (-0.1226789E-04)
 number of electron      90.0000860 magnetization       0.0000000
 augmentation part       56.1848133 magnetization       0.0000000

 Free energy of the ion-electron system (eV)
  alpha Z        PSCENC =       216.17040255
  Ewald energy   TEWEN  =     42248.51018262
  -Hartree energ DENC   =    -52975.71720911
  -exchange      EXHF   =         0.00000000
  -V(xc)+E(xc)   XCENC  =       362.11223107
  PAW double counting   =     10522.88088448   -11384.83982317
  entropy T*S    EENTRO =        -0.00600423
  eigenvalues    EBANDS =      -177.08303914
  atomic energy  EATOM  =     11152.61838693
  Solvation  Ediel_sol  =         0.00000000
  free energy    TOTEN  =       -35.35398800 eV

  energy without entropy =      -35.34798377  energy(sigma->0) =      -35.35198659

 average (electrostatic) potential at core
  the test charge radii are     0.9430  0.5201
  (the norm of the test charge is              1.0000)
       1 -69.7152       2 -70.1809       3 -70.3275       4 -70.3410       5 -70.3374
       6 -70.3381       7 -70.1889       8 -69.8178       9 -36.6199      10 -36.5717

 E-fermi :   0.7657     XC(G=0):  -6.6271     alpha+bet : -5.9229

 Fermi energy:         0.7657260200

[...]

 k-point     4 :       0.3333    0.3333    0.0000
  band No.  band energies     occupation
      1      -5.1421      1.00000
      2      -4.8207      1.00000
      3      -4.0908      1.00000
      4      -3.5464      1.00000
      5      -3.4631      1.00000
      6      -3.1815      1.00000
      7      -3.1235      1.00000
      8      -3.0071      1.00000
      9      -2.9859      1.00000
     10      -2.8187      1.00000
     11      -2.7978      1.00000
     12      -2.5706      1.00000
     13      -2.5033      1.00000
     14      -2.3806      1.00000
     15      -2.3132      1.00000
     16      -2.2771      1.00000
     17      -2.2276      1.00000
     18      -2.1666      1.00000
     19      -2.0318      1.00000
     20      -1.9621      1.00000
     21      -1.9502      1.00000
     22      -1.9286      1.00000
     23      -1.8875      1.00000
     24      -1.7535      1.00000
     25      -1.6662      1.00000
     26      -1.5394      1.00000
     27      -1.5254      1.00000
     28      -1.2641      1.00000
     29      -1.2109      1.00000
     30      -1.1494      1.00000
     31      -1.1043      1.00000
     32      -1.0719      1.00000
     33      -0.9950      1.00000
     34      -0.9821      1.00000
     35      -0.8570      1.00000
     36      -0.7637      1.00000
     37      -0.7420      1.00000
     38      -0.6841      1.00000
     39      -0.6605      1.00000
     40      -0.6094      1.00000
     41      -0.5654      1.00000
     42      -0.5201      1.00000
     43      -0.1690      1.00000
     44       0.6827      0.82004
     45       1.7202     -0.00000
     46       2.1421     -0.00000
     47       2.6877     -0.00000
     48       3.9974     -0.00000
     49       4.0957     -0.00000
     50       5.5872     -0.00000
     51       5.6983     -0.00000
     52       6.0877     -0.00000
     53       6.8340      0.00000
     54       7.1759      0.00000
     55       7.8457      0.00000
     56       7.9494      0.00000
     57       8.2212      0.00000
     58       8.9835      0.00000
     59       9.2572      0.00000
     60       9.6243      0.00000
 Fermi energy:         0.7657260200

 spin component 2

[...]

 k-point     4 :       0.3333    0.3333    0.0000
  band No.  band energies     occupation
      1      -5.1421      1.00000
      2      -4.8207      1.00000
      3      -4.0908      1.00000
      4      -3.5464      1.00000
      5      -3.4631      1.00000
      6      -3.1815      1.00000
      7      -3.1235      1.00000
      8      -3.0071      1.00000
      9      -2.9859      1.00000
     10      -2.8187      1.00000
     11      -2.7978      1.00000
     12      -2.5706      1.00000
     13      -2.5033      1.00000
     14      -2.3806      1.00000
     15      -2.3132      1.00000
     16      -2.2771      1.00000
     17      -2.2276      1.00000
     18      -2.1666      1.00000
     19      -2.0318      1.00000
     20      -1.9621      1.00000
     21      -1.9502      1.00000
     22      -1.9286      1.00000
     23      -1.8875      1.00000
     24      -1.7535      1.00000
     25      -1.6662      1.00000
     26      -1.5394      1.00000
     27      -1.5254      1.00000
     28      -1.2641      1.00000
     29      -1.2109      1.00000
     30      -1.1494      1.00000
     31      -1.1043      1.00000
     32      -1.0719      1.00000
     33      -0.9950      1.00000
     34      -0.9821      1.00000
     35      -0.8570      1.00000
     36      -0.7637      1.00000
     37      -0.7420      1.00000
     38      -0.6841      1.00000
     39      -0.6605      1.00000
     40      -0.6094      1.00000
     41      -0.5654      1.00000
     42      -0.5201      1.00000
     43      -0.1690      1.00000
     44       0.6827      0.82004
     45       1.7202     -0.00000
     46       2.1421     -0.00000
     47       2.6877     -0.00000
     48       3.9974     -0.00000
     49       4.0957     -0.00000
     50       5.5872     -0.00000
     51       5.6983     -0.00000
     52       6.0877     -0.00000
     53       6.8340      0.00000
     54       7.1759      0.00000
     55       7.8457      0.00000
     56       7.9494      0.00000
     57       8.2212      0.00000
     58       8.9835      0.00000
     59       9.2572      0.00000
     60       9.6243      0.00000

[...]

 soft charge-density along one line, spin component           2
         0         1         2         3         4         5         6         7         8         9
 total charge-density along one line

------------------------ aborting loop because EDIFF is reached ----------------------------------------

         DFTD3 V3.0 Rev 1
 Edisp (eV)   -3.17846

 E6    (eV) :    -1.2947
 E8    (eV) :    -1.8838
 % E8        : 59.27

  FORCE on cell =-STRESS in cart. coord.  units (eV):
  Direction    XX          YY          ZZ          XY          YZ          ZX
  Alpha Z   216.17040   216.17040   216.17040
  Ewald   47940.33546 48102.46999-53794.30058     0.00000    -0.00000     0.00000
  Hartree 51018.10279 51138.76645-49181.51463    -0.00000    -0.00000    -0.00000
  E(xc)    -520.43981  -520.22546  -520.59129     0.00000     0.00000    -0.00000
  Local  -99969.85574************101970.12070     0.00000     0.00000    -0.00000
  n-local  -179.47823  -175.15564  -180.36897     6.78867    -0.00000     0.00000
  augment   755.37530   758.51817   757.77459    -0.00000     0.00000    -0.00000
  Kinetic   738.71917   739.68145   735.20253     6.59028     0.00000    -0.00000
  Fock        0.00000     0.00000     0.00000     0.00000     0.00000     0.00000
  vdW        -3.87974    -3.82518    -2.76024     0.00000     0.00000    -0.00000
  Total      -4.95039    -4.51620    -0.26748     0.00000     0.00000     0.00000
  in kB     -35.49227   -32.37930    -1.91773     0.00000     0.00000     0.00000

 VOLUME and BASIS-vectors are now :
  energy-cutoff  :      400.00
  volume of cell :      223.47
      direct lattice vectors                 reciprocal lattice vectors
     3.630000114  0.000000000  0.000000000     0.275482085  0.000000000  0.000000000
     0.000000000  2.566797733  0.000000000     0.000000000  0.389590495  0.000000000
     0.000000000  0.000000000 23.983791351     0.000000000  0.000000000  0.041694826

  length of vectors
     3.630000114  2.566797733 23.983791351     0.275482085  0.389590495  0.041694826

 FORCES acting on ions
    electron-ion (+dipol)            ewald-force                    non-local-force                 convergence-correction
   -.383E-13 -.107E-11 0.460E+04   -.746E-07 0.322E-07 -.459E+04   0.000E+00 0.000E+00 -.611E+01   0.101E-09 -.477E-10 -.390E-01
   0.737E-06 -.131E-05 0.352E+04   0.134E-06 -.571E-07 -.352E+04   0.000E+00 0.000E+00 0.155E+01   -.622E-10 0.107E-09 -.171E-01
   -.618E-13 0.298E-13 0.208E+04   -.125E-06 0.522E-07 -.208E+04   0.000E+00 0.000E+00 -.991E+00   -.772E-10 0.348E-10 0.113E+00
   0.753E-06 -.132E-05 0.771E+03   0.129E-06 -.539E-07 -.771E+03   0.000E+00 0.000E+00 0.258E+00   0.415E-10 -.374E-10 0.232E+00
   -.755E-13 -.215E-12 -.586E+03   -.129E-06 0.538E-07 0.586E+03   0.000E+00 0.000E+00 -.116E+00   -.264E-10 0.128E-10 0.105E+00
   0.760E-06 -.132E-05 -.190E+04   0.125E-06 -.521E-07 0.189E+04   0.000E+00 0.000E+00 0.109E+01   0.205E-10 -.713E-10 0.206E+00
   -.587E-13 0.877E-12 -.334E+04   -.136E-06 0.573E-07 0.334E+04   0.000E+00 0.000E+00 -.154E+01   0.120E-09 -.608E-10 0.474E-01
   0.804E-06 -.134E-05 -.441E+04   0.799E-07 -.332E-07 0.440E+04   0.000E+00 0.000E+00 0.684E+01   0.714E-10 -.595E-10 -.144E+00
   0.536E-07 -.143E-07 -.378E+03   -.292E-08 0.720E-09 0.373E+03   0.000E+00 0.000E+00 0.471E+01   0.123E-10 0.153E-11 -.200E-01
   0.503E-07 -.150E-07 -.367E+03   -.808E-09 0.997E-10 0.372E+03   0.000E+00 0.000E+00 -.480E+01   -.390E-11 0.201E-11 -.191E-01
   0.316E-05 -.532E-05 -.128E+01   0.318E-13 0.674E-13 0.171E-12   0.000E+00 0.000E+00 0.887E+00   0.197E-09 -.118E-09 0.465E+00

 POSITION                                       TOTAL-FORCE (eV/Angst)
      0.00000      0.00000     -0.01909         0.000000      0.000000     -0.019293
      1.81500      1.28340      1.11299         0.000000      0.000000     -0.005097
      0.00000      0.00000      2.41467         0.000000      0.000000     -0.010762
      1.81500      1.28340      3.66239         0.000000      0.000000     -0.014940
      0.00000      0.00000      4.92369         0.000000      0.000000      0.013228
      1.81500      1.28340      6.17396         0.000000      0.000000      0.002563
      0.00000      0.00000      7.47531         0.000000      0.000000     -0.005659
      1.81500      1.28340      8.60107         0.000000      0.000000      0.014176
      1.81500      0.00000     10.70463         0.000000      0.000000      0.002736
      1.81500      0.00000     11.46659         0.000000      0.000000      0.023047
    total drift:                                0.000003     -0.000005      0.066598

  FREE ENERGIE OF THE ION-ELECTRON SYSTEM (eV)
  free  energy   TOTEN  =       -38.53245109 eV

  energy  without entropy=      -38.52644686  energy(sigma->0) =      -38.53044968

 d Force = 0.1383871E-03[ 0.109E-03, 0.168E-03]  d Energy = 0.2620124E-03-0.124E-03
 d Force = 0.4633832E+01[ 0.463E+01, 0.464E+01]  d Ewald  = 0.4633832E+01 0.206E-06

 stress matrix after NEB project (eV)
     -4.95039      0.00000      0.00000
      0.00000     -4.51620      0.00000
      0.00000      0.00000     -0.26748
  FORCES: max atom, RMS     0.023047    0.013001
  FORCE total and by dimension    0.041114    0.023047
  Stress total and by dimension    6.706262    4.950389

 reached required accuracy - stopping structural energy minimisation