 vasp.6.3.2 27Jun22 (build Aug 17 2022 15:43:34) complex

 executed on           tv2STDVTST date 2025.01.21  16:10:25

 INCAR:
   ISTART = 0
   ICHARG = 2
   IPIPOL = 3
   IVDW = 11
   IDIPOL = 3
   IVDW = 11
   ISPIN = 2
   ENCUT = 400
   PREC = Normal
   EDIFF = 2E-04
   GGA = PE
   ISMEAR = 1
   SIGMA = 0.2
   LREAL = .FALSE.
   ISYM = 1
   NSW = 800
   IBRION = 2
   POTIM = 0.5
   ISIF = 2
   EDIFFG = -.03
   NPAR = 4
   LWAVE = .FALSE.
   LCHARG = .FALSE.

 POTCAR:    PAW_PBE Cu 22Jun2005
|           W    W    AA    RRRRR   N    N  II  N    N   GGGG   !!!           |
|           W    W   A  A   R    R  NN   N  II  NN   N  G    G  !!!           |
|           W    W  A    A  R    R  N N  N  II  N N  N  G       !!!           |
|           W WW W  AAAAAA  RRRRR   N  N N  II  N  N N  G  GGG   !            |
|           WW  WW  A    A  R   R   N   NN  II  N   NN  G    G                |
|           W    W  A    A  R    R  N    N  II  N    N   GGGG   !!!           |
|     You use a magnetic or noncollinear calculation, but did not specify     |
|     the initial magnetic moment with the MAGMOM tag. Note that a            |
|     default of 1 will be used for all atoms. This ferromagnetic setup       |
|     may break the symmetry of the crystal, in particular it may rule        |
|     out finding an antiferromagnetic solution. Thence, we recommend         |
|     setting the initial magnetic moment manually or verifying carefully     |
|     that this magnetic setup is desired.                                    |

   TITEL  = PAW_PBE Cu 22Jun2005
   POMASS =   63.546; ZVAL   =   11.000    mass and valenz
   ENMAX  =  295.446; ENMIN  =  221.585 eV

  PAW_PBE Cu 22Jun2005                  :

 POSCAR: FCC Cu
  positions in cartesian coordinates
  velocities in cartesian coordinates
 exchange correlation table for  LEXCH =        8
   RHO(1)=    0.500       N(1)  =     2000
   RHO(2)=  100.500       N(2)  =     4000

 VTST: version 4.2, (08/11/21)

 CHAIN: initializing optimizer

 OPT: Using VASP Conjugate-Gradient optimizer
 CHAIN: Read ICHAIN            0

 POSCAR: FCC Cu
  positions in cartesian coordinates
  velocities in cartesian coordinates

 ion  position               nearest neighbor table
   1  0.000  0.000  0.000-   9 2.57   6 2.57   5 2.57   8 2.57   7 2.57   2 2.57   2 2.57
   2  0.000  0.500  0.000-  10 2.57   5 2.57   6 2.57   7 2.57   8 2.57   1 2.57   1 2.57
   3  0.500  0.000  0.000-  11 2.57   8 2.57   6 2.57   7 2.57   5 2.57   4 2.57   4 2.57
   4  0.500  0.500  0.000-  12 2.57   7 2.57   5 2.57   8 2.57   6 2.57   3 2.57   3 2.57
   5  0.250  0.250  0.060-  13 2.57  10 2.57  12 2.57   9 2.57  11 2.57   2 2.57   4 2.57   1 2.57
                             3 2.57   6 2.57   6 2.57
   6  0.250  0.750  0.060-  14 2.57   9 2.57  11 2.57  10 2.57  12 2.57   1 2.57   3 2.57   2 2.57
                             4 2.57   5 2.57   5 2.57
   7  0.750  0.250  0.060-  15 2.57  12 2.57  11 2.57  10 2.57   4 2.57   9 2.57   3 2.57   2 2.57
                             1 2.57   8 2.57   8 2.57
   8  0.750  0.750  0.060-  16 2.57  11 2.57  12 2.57   9 2.57  10 2.57   3 2.57   4 2.57   1 2.57
                             2 2.57   7 2.57   7 2.57
   9  0.000  0.000  0.120-   1 2.57  17 2.57   6 2.57   5 2.57   8 2.57   7 2.57  14 2.57  13 2.57
                            16 2.57  15 2.57  10 2.57  10 2.57
  10  0.000  0.500  0.120-   2 2.57  18 2.57   5 2.57   6 2.57   7 2.57  13 2.57   8 2.57  14 2.57
                            15 2.57  16 2.57   9 2.57   9 2.57
  11  0.500  0.000  0.120-   3 2.57  19 2.57   8 2.57   6 2.57   7 2.57   5 2.57  16 2.57  14 2.57
                            15 2.57  13 2.57  12 2.57  12 2.57
  12  0.500  0.500  0.120-   4 2.57  20 2.57   7 2.57   5 2.57   8 2.57   6 2.57  15 2.57  13 2.57
                            16 2.57  14 2.57  11 2.57  11 2.57
  13  0.250  0.250  0.180-  21 2.57   5 2.57  18 2.57  20 2.57  17 2.57  19 2.57  10 2.57  12 2.57
                             9 2.57  11 2.57  14 2.57  14 2.57
  14  0.250  0.750  0.180-  22 2.57   6 2.57  17 2.57  19 2.57  18 2.57  20 2.57   9 2.57  11 2.57
                            10 2.57  12 2.57  13 2.57  13 2.57
  15  0.750  0.250  0.180-  23 2.57   7 2.57  20 2.57  19 2.57  12 2.57  18 2.57  11 2.57  17 2.57
                            10 2.57   9 2.57  16 2.57  16 2.57
  16  0.750  0.750  0.180-  24 2.57   8 2.57  19 2.57  20 2.57  11 2.57  17 2.57  12 2.57  18 2.57
                             9 2.57  10 2.57  15 2.57  15 2.57
  17  0.000  0.000  0.240-   9 2.57  14 2.57  22 2.57  13 2.57  21 2.57  16 2.57  24 2.57  15 2.57
                            23 2.57  18 2.57  18 2.57
  18  0.000  0.500  0.240-  10 2.57  13 2.57  21 2.57  14 2.57  22 2.57  15 2.57  23 2.57  16 2.57
                            24 2.57  17 2.57  17 2.57
  19  0.500  0.000  0.240-  11 2.57  16 2.57  14 2.57  24 2.57  22 2.57  15 2.57  13 2.57  23 2.57
                            21 2.57  20 2.57  20 2.57
  20  0.500  0.500  0.240-  12 2.57  15 2.57  13 2.57  23 2.57  21 2.57  16 2.57  14 2.57  24 2.57
                            22 2.57  19 2.57  19 2.57
  21  0.250  0.250  0.300-  13 2.57  18 2.57  20 2.57  17 2.57  19 2.57  22 2.57  22 2.57
  22  0.250  0.750  0.300-  14 2.57  17 2.57  19 2.57  18 2.57  20 2.57  21 2.57  21 2.57
  23  0.750  0.250  0.300-  15 2.57  20 2.57  19 2.57  18 2.57  17 2.57  24 2.57  24 2.57
  24  0.750  0.750  0.300-  16 2.57  19 2.57  20 2.57  17 2.57  18 2.57  23 2.57  23 2.57

  LATTYP: Found a simple orthorhombic cell.
 ALAT       =     5.1335954666
 B/A-ratio  =     1.4142135422
 C/A-ratio  =     4.1719286491

  Lattice vectors:

 A1 = (   0.0000000000,  -5.1335954666,   0.0000000000)
 A2 = (   7.2600002289,   0.0000000000,   0.0000000000)
 A3 = (   0.0000000000,   0.0000000000,  21.4169940000)

Analysis of symmetry for initial positions (statically):
 Subroutine PRICEL returns following result:

[...]

   4 primitive cells build up your supercell.

 Routine SETGRP: Setting up the symmetry group for a
 simple orthorhombic supercell.

 Subroutine GETGRP returns: Found  8 space group operations
 (whereof  4 operations were pure point group operations)
 out of a pool of  8 trial point group operations.

The static configuration has the point symmetry C_2v.
 The point group associated with its full space group is D_2h.

Analysis of symmetry for dynamics (positions and initial velocities):
 Subroutine PRICEL returns following result:

[...]

The dynamic configuration has the point symmetry C_2v.
 The point group associated with its full space group is D_2h.

Analysis of constrained symmetry for selective dynamics:
 Subroutine PRICEL returns following result:

[...]

The constrained configuration has the point symmetry C_2v.

Analysis of structural, dynamic, and magnetic symmetry:
 Subroutine PRICEL returns following result:

  LATTYP: Found a simple orthorhombic cell.
 ALAT       =     2.5667977330
 B/A-ratio  =     1.4142135422
 C/A-ratio  =     8.3438572992

  Lattice vectors:

 A1 = (   0.0000000000,  -2.5667977330,   0.0000000000)
 A2 = (   3.6300001140,   0.0000000000,   0.0000000000)
 A3 = (   0.0000000000,   0.0000000000,  21.4169940000)

   4 primitive cells build up your supercell.

 Routine SETGRP: Setting up the symmetry group for a
 simple orthorhombic supercell.

 Subroutine GETGRP returns: Found  4 space group operations
 (whereof  4 operations were pure point group operations)
 out of a pool of  8 trial point group operations.

The overall configuration has the point symmetry C_2v.

 Subroutine INISYM returns: Found  4 space group operations
 (whereof  4 operations are pure point group operations),
 and found     4 'primitive' translations

                                     Primitive cell

  volume of cell :     199.5523

  direct lattice vectors                    reciprocal lattice vectors
     0.000000000 -2.566797733  0.000000000     0.000000000 -0.389590495  0.000000000
     3.630000114  0.000000000  0.000000000     0.275482085  0.000000000  0.000000000
     0.000000000  0.000000000 21.416994000     0.000000000  0.000000000  0.046691893

  length of vectors
     2.566797733  3.630000114 21.416994000     0.389590495  0.275482085  0.046691893

  position of ions in fractional coordinates (direct lattice)
     0.000000000  0.000000000  0.000000000
     0.500000000  0.500000000  0.059924321
     0.000000000  0.000000000  0.119848642
     0.500000000  0.500000000  0.179772964
     0.000000000  0.000000000  0.239697285
     0.500000000  0.500000000  0.299621606

  ion indices of the primitive-cell ions
   primitive index   ion index
                 1           1
                 2           6
                 3           9
                 4          14
                 5          17
                 6          22

 KPOINTS: Auto-mesh

Automatic generation of k-mesh.
 Grid dimensions read from file:
 generate k-points for:    3    3    1

 Generating k-lattice:

  Cartesian coordinates                     Fractional coordinates (reciprocal lattice)
     0.045913681  0.000000000  0.000000000     0.333333333  0.000000000  0.000000000
     0.000000000  0.064931749  0.000000000     0.000000000  0.333333333  0.000000000
     0.000000000  0.000000000  0.046691893     0.000000000  0.000000000  1.000000000

  Length of vectors
     0.045913681  0.064931749  0.046691893

  Shift w.r.t. Gamma in fractional coordinates (k-lattice)
     0.000000000  0.000000000  0.000000000

 Subroutine IBZKPT returns following result:

 Found      4 irreducible k-points:

 Following reciprocal coordinates:
            Coordinates               Weight
  0.000000  0.000000  0.000000      1.000000
  0.333333  0.000000  0.000000      2.000000
  0.000000  0.333333  0.000000      2.000000
  0.333333  0.333333  0.000000      4.000000

 Following cartesian coordinates:
            Coordinates               Weight
  0.000000  0.000000  0.000000      1.000000
  0.045914  0.000000  0.000000      2.000000
  0.000000  0.064932  0.000000      2.000000
  0.045914  0.064932  0.000000      4.000000

 SYSTEM =  unknown system
 POSCAR =  FCC Cu

 Startparameter for this run:
   NWRITE =      2    write-flag & timer
   PREC   = normal    normal or accurate (medium, high low for compatibility)
   ISTART =      0    job   : 0-new  1-cont  2-samecut
   ICHARG =      2    charge: 1-file 2-atom 10-const
   ISPIN  =      2    spin polarized calculation?
   LNONCOLLINEAR =      F non collinear calculations
   LSORBIT =      F    spin-orbit coupling
   INIWAV =      1    electr: 0-lowe 1-rand  2-diag
   LASPH  =      F    aspherical Exc in radial PAW
 Electronic Relaxation 1
   ENCUT  =  400.0 eV  29.40 Ry    5.42 a.u.  11.84  8.37 34.93*2*pi/ulx,y,z
   ENINI  =  400.0     initial cutoff
   ENAUG  =  587.0 eV  augmentation charge cutoff
   NELM   =     60;   NELMIN=  2; NELMDL= -5     # of ELM steps
   EDIFF  = 0.2E-03   stopping-criterion for ELM
   LREAL  =      F    real-space projection
   NLSPLINE    = F    spline interpolate recip. space projectors
   LCOMPAT=      F    compatible to vasp.4.4
   GGA_COMPAT  = T    GGA compatible to vasp.4.4-vasp.4.6
   LMAXPAW     = -100 max onsite density
[...]
  Stress total and by dimension   21.319008   16.275862

[...]

 eigenvalue-minimisations  :  2964
 total energy-change (2. order) : 0.3384643E-03  (-0.5155085E-01)
 number of electron     264.0002378 magnetization       0.0000011
 augmentation part      168.5896719 magnetization       0.0000008

[...]

 Broyden mixing:
  rms(total) = 0.56080E-02    rms(broyden)= 0.56033E-02
  rms(prec ) = 0.60457E-02
  weight for this iteration     100.00

 eigenvalues of (default mixing * dielectric matrix)
  average eigenvalue GAMMA=   0.3667
  0.3667

[...]

--------------------------------------- Iteration     24(   3)  ---------------------------------------

 eigenvalue-minimisations  :  2128
 total energy-change (2. order) :-0.2541172E-05  (-0.4577880E-04)
 number of electron     264.0002378 magnetization       0.0000011
 augmentation part      168.5944998 magnetization       0.0000008

 Free energy of the ion-electron system (eV)
  alpha Z        PSCENC =       527.73745042
  Ewald energy   TEWEN  =    103453.83339420
  -Hartree energ DENC   =   -135176.00250253
  -exchange      EXHF   =         0.00000000
  -V(xc)+E(xc)   XCENC  =      1068.34514903
  PAW double counting   =     31298.82838128   -33882.06293869
  entropy T*S    EENTRO =        -0.04460568
  eigenvalues    EBANDS =      -755.58020362
  atomic energy  EATOM  =     33382.98336479
  Solvation  Ediel_sol  =         0.00000000
  free energy    TOTEN  =       -81.96251081 eV

  energy without entropy =      -81.91790513  energy(sigma->0) =      -81.94764225

 average (electrostatic) potential at core
  the test charge radii are     0.9430
  (the norm of the test charge is              1.0000)
       1 -70.8700       2 -70.8700       3 -70.8700       4 -70.8700       5 -71.2647
       6 -71.2647       7 -71.2647       8 -71.2647       9 -71.2977      10 -71.2977
      11 -71.2977      12 -71.2977      13 -71.3147      14 -71.3147      15 -71.3147
      16 -71.3147      17 -71.2716      18 -71.2716      19 -71.2716      20 -71.2716
      21 -70.9518      22 -70.9518      23 -70.9518      24 -70.9518

 E-fermi :  -0.0396     XC(G=0):  -5.4382     alpha+bet : -4.7670

 Fermi energy:        -0.0395903874

[...]

 k-point     4 :       0.3333    0.3333    0.0000
  band No.  band energies     occupation
      1      -7.9022      1.00000
      2      -7.0066      1.00000
      3      -6.4220      1.00000
      4      -6.2252      1.00000
      5      -5.6819      1.00000
      6      -5.6241      1.00000
      7      -5.1408      1.00000
      8      -4.7737      1.00000
      9      -4.6317      1.00000
     10      -4.6293      1.00000
     11      -4.5955      1.00000
     12      -4.4645      1.00000
     13      -4.4038      1.00000
     14      -4.3852      1.00000
     15      -4.1790      1.00000
     16      -4.1530      1.00000
     17      -4.1066      1.00000
     18      -4.0807      1.00000
     19      -4.0645      1.00000
     20      -4.0498      1.00000
     21      -4.0477      1.00000
     22      -4.0083      1.00000
     23      -3.9600      1.00000
     24      -3.9553      1.00000
     25      -3.9392      1.00000
     26      -3.8722      1.00000
     27      -3.8013      1.00000
     28      -3.7377      1.00000
     29      -3.7075      1.00000
     30      -3.6273      1.00000
     31      -3.5458      1.00000
     32      -3.5442      1.00000
     33      -3.5160      1.00000
     34      -3.4886      1.00000
     35      -3.4594      1.00000
     36      -3.4575      1.00000
     37      -3.4472      1.00000
     38      -3.4417      1.00000
     39      -3.3821      1.00000
     40      -3.3101      1.00000
     41      -3.3064      1.00000
     42      -3.2964      1.00000
     43      -3.2803      1.00000
     44      -3.2406      1.00000
     45      -3.2343      1.00000
     46      -3.2234      1.00000
     47      -3.2219      1.00000
     48      -3.1623      1.00000
     49      -3.0352      1.00000
     50      -3.0312      1.00000
     51      -3.0225      1.00000
     52      -3.0212      1.00000
     53      -3.0144      1.00000
     54      -2.9835      1.00000
     55      -2.9699      1.00000
     56      -2.9187      1.00000
     57      -2.9093      1.00000
     58      -2.8736      1.00000
     59      -2.8314      1.00000
     60      -2.8303      1.00000
[...]
    158       5.8232      0.00000
    159       6.0749      0.00000
    160       6.2901      0.00000
    161       6.4250      0.00000
    162       6.5399      0.00000
    163       6.5468      0.00000
    164       7.0063      0.00000
    165       7.1140      0.00000
    166       7.1778      0.00000
    167       7.2973      0.00000
    168       7.3251      0.00000
    169       7.5186      0.00000
    170       7.5214      0.00000
    171       7.8877      0.00000
    172       8.0452      0.00000
 Fermi energy:        -0.0395903874

 spin component 2

[...]

 k-point     4 :       0.3333    0.3333    0.0000
  band No.  band energies     occupation
      1      -7.9022      1.00000
      2      -7.0066      1.00000
      3      -6.4220      1.00000
      4      -6.2252      1.00000
      5      -5.6819      1.00000
      6      -5.6241      1.00000
      7      -5.1408      1.00000
      8      -4.7737      1.00000
      9      -4.6317      1.00000
     10      -4.6293      1.00000
     11      -4.5955      1.00000
     12      -4.4645      1.00000
     13      -4.4038      1.00000
     14      -4.3852      1.00000
     15      -4.1790      1.00000
     16      -4.1530      1.00000
     17      -4.1066      1.00000
     18      -4.0807      1.00000
     19      -4.0645      1.00000
     20      -4.0498      1.00000
     21      -4.0477      1.00000
     22      -4.0083      1.00000
     23      -3.9600      1.00000
     24      -3.9553      1.00000
     25      -3.9392      1.00000
     26      -3.8722      1.00000
     27      -3.8013      1.00000
     28      -3.7377      1.00000
     29      -3.7075      1.00000
     30      -3.6273      1.00000
     31      -3.5458      1.00000
     32      -3.5442      1.00000
     33      -3.5160      1.00000
     34      -3.4886      1.00000
     35      -3.4594      1.00000
     36      -3.4575      1.00000
     37      -3.4472      1.00000
     38      -3.4417      1.00000
     39      -3.3821      1.00000
     40      -3.3101      1.00000
     41      -3.3064      1.00000
     42      -3.2964      1.00000
     43      -3.2803      1.00000
     44      -3.2406      1.00000
     45      -3.2343      1.00000
     46      -3.2234      1.00000
     47      -3.2219      1.00000
     48      -3.1623      1.00000
     49      -3.0352      1.00000
     50      -3.0312      1.00000
     51      -3.0225      1.00000
     52      -3.0212      1.00000
     53      -3.0144      1.00000
     54      -2.9835      1.00000
     55      -2.9699      1.00000
     56      -2.9187      1.00000
     57      -2.9093      1.00000
     58      -2.8736      1.00000
     59      -2.8314      1.00000
     60      -2.8303      1.00000
[...]
    158       5.8232      0.00000
    159       6.0749      0.00000
    160       6.2903      0.00000
    161       6.4252      0.00000
    162       6.5400      0.00000
    163       6.5468      0.00000
    164       7.0065      0.00000
    165       7.1140      0.00000
    166       7.1778      0.00000
    167       7.2973      0.00000
    168       7.3251      0.00000
    169       7.5187      0.00000
    170       7.5214      0.00000
    171       7.8878      0.00000
    172       8.0454      0.00000

[...]

 soft charge-density along one line, spin component           2
         0         1         2         3         4         5         6         7         8         9
 total charge-density along one line

------------------------ aborting loop because EDIFF is reached ----------------------------------------

 DIPCOR: dipole corrections for dipol
 direction  3 min pos   145,
 dipolmoment           0.000000      0.000000      0.009820 electrons x Angstroem
 Tr[quadrupol]     -1954.456753

 energy correction for charged system         0.000000 eV
 dipol+quadrupol energy correction            0.000011 eV
 added-field ion interaction          0.000000 eV  (added to PSCEN)

  *************** adding dipol energy to TOTEN NOW ****************

         DFTD3 V3.0 Rev 1
 Edisp (eV)   -8.11382

 E6    (eV) :    -3.1536
 E8    (eV) :    -4.9602
 % E8        : 61.13

  FORCE on cell =-STRESS in cart. coord.  units (eV):
  Direction    XX          YY          ZZ          XY          YZ          ZX
  Alpha Z   527.73745   527.73745   527.73745
  Ewald  120252.26799120934.35865************    -0.00000    -0.00000     0.00000
  Hartree129159.62280129625.88196************    -0.00000    -0.00000    -0.00000
  E(xc)   -1541.65804 -1540.90970 -1543.70280    -0.00000     0.00000    -0.00000
  Local  ************************258455.97014    -0.00000     0.00000    -0.00000
  n-local  -528.11831  -522.26221  -529.74611     1.25173     0.00000    -0.00000
  augment  2269.60495  2266.63496  2273.16161    -0.00000     0.00000    -0.00000
  Kinetic  2151.95539  2149.91865  2160.87544     1.39628    -0.00000    -0.00000
  Fock        0.00000     0.00000     0.00000     0.00000     0.00000     0.00000
  vdW        -9.92788   -10.16289    -5.70311    -0.00000     0.00000    -0.00000
  Total     -15.85860   -12.82473    -3.42127     0.00000     0.00000     0.00000
  in kB     -31.83161   -25.74198    -6.86722     0.00000     0.00000     0.00000

 VOLUME and BASIS-vectors are now :
  energy-cutoff  :      400.00
  volume of cell :      798.21
      direct lattice vectors                 reciprocal lattice vectors
     7.260000229  0.000000000  0.000000000     0.137741042  0.000000000  0.000000000
     0.000000000  5.133595467  0.000000000     0.000000000  0.194795248  0.000000000
     0.000000000  0.000000000 21.416994000     0.000000000  0.000000000  0.046691893

  length of vectors
     7.260000229  5.133595467 21.416994000     0.137741042  0.194795248  0.046691893

 FORCES acting on ions
    electron-ion (+dipol)            ewald-force                    non-local-force                 convergence-correction
   -.107E-12 0.197E-11 0.359E+04   -.302E-06 -.144E-06 -.359E+04   0.000E+00 0.000E+00 -.543E+01   0.106E-09 0.638E-10 -.649E-02
   -.113E-12 0.116E-05 0.359E+04   -.302E-06 0.195E-06 -.359E+04   -.662E-23 0.993E-23 -.543E+01   0.106E-09 -.117E-09 -.649E-02
   0.183E-05 0.136E-11 0.359E+04   0.162E-06 -.144E-06 -.359E+04   0.331E-23 0.132E-22 -.543E+01   -.258E-09 0.641E-10 -.649E-02
   0.183E-05 0.116E-05 0.359E+04   0.162E-06 0.195E-06 -.359E+04   0.170E-22 0.662E-23 -.543E+01   -.258E-09 -.116E-09 -.649E-02
   0.840E-06 -.132E-05 0.233E+04   -.165E-06 -.235E-06 -.233E+04   0.132E-22 0.000E+00 -.162E+00   0.145E-09 0.458E-10 0.245E-01
   0.840E-06 -.188E-06 0.233E+04   -.165E-06 0.130E-06 -.233E+04   -.132E-22 -.662E-23 -.162E+00   0.145E-09 0.636E-10 0.245E-01
   0.252E-05 -.132E-05 0.233E+04   0.446E-06 -.235E-06 -.233E+04   -.265E-22 -.662E-23 -.162E+00   0.149E-09 0.472E-10 0.245E-01
   0.252E-05 -.188E-06 0.233E+04   0.446E-06 0.130E-06 -.233E+04   -.364E-22 -.993E-23 -.162E+00   0.150E-09 0.639E-10 0.245E-01
   -.109E-12 0.200E-12 0.758E+03   -.492E-06 -.145E-06 -.757E+03   0.000E+00 -.662E-23 -.107E+01   -.120E-09 0.381E-10 -.172E+00
   -.110E-12 0.113E-05 0.758E+03   -.492E-06 0.256E-06 -.757E+03   -.662E-23 0.579E-23 -.107E+01   -.120E-09 -.368E-10 -.172E+00
   0.169E-05 0.302E-13 0.758E+03   0.198E-06 -.145E-06 -.757E+03   -.331E-23 -.265E-22 -.107E+01   -.265E-09 0.390E-10 -.172E+00
   0.169E-05 0.113E-05 0.758E+03   0.198E-06 0.256E-06 -.757E+03   0.103E-22 0.993E-23 -.107E+01   -.265E-09 -.374E-10 -.172E+00
   0.852E-06 -.132E-05 -.730E+03   -.202E-06 -.256E-06 0.729E+03   0.000E+00 0.000E+00 0.121E+01   -.107E-09 0.457E-10 0.143E+00
   0.852E-06 -.189E-06 -.730E+03   -.202E-06 0.150E-06 0.729E+03   0.000E+00 0.827E-24 0.121E+01   -.107E-09 -.585E-10 0.143E+00
   0.256E-05 -.132E-05 -.730E+03   0.486E-06 -.256E-06 0.729E+03   -.165E-23 0.000E+00 0.121E+01   -.305E-09 0.449E-10 0.143E+00
   0.256E-05 -.189E-06 -.730E+03   0.486E-06 0.150E-06 0.729E+03   0.000E+00 0.993E-23 0.121E+01   -.305E-09 -.609E-10 0.143E+00
   -.141E-12 -.264E-11 -.236E+04   -.459E-06 -.127E-06 0.236E+04   0.000E+00 0.199E-22 -.678E+00   0.257E-09 -.107E-09 -.455E-01
   -.141E-12 0.113E-05 -.236E+04   -.459E-06 0.238E-06 0.236E+04   0.000E+00 0.993E-23 -.678E+00   0.257E-09 0.469E-10 -.455E-01
   0.166E-05 -.397E-11 -.236E+04   0.162E-06 -.127E-06 0.236E+04   0.000E+00 -.662E-23 -.678E+00   0.563E-09 -.106E-09 -.455E-01
   0.166E-05 0.113E-05 -.236E+04   0.162E-06 0.238E-06 0.236E+04   0.000E+00 0.331E-23 -.678E+00   0.563E-09 0.468E-10 -.455E-01
   0.902E-06 -.135E-05 -.359E+04   -.165E-06 -.206E-06 0.358E+04   -.397E-22 0.132E-22 0.563E+01   -.121E-10 -.243E-10 -.105E+00
   0.902E-06 -.192E-06 -.359E+04   -.165E-06 0.142E-06 0.358E+04   0.132E-22 0.662E-23 0.563E+01   -.121E-10 -.466E-10 -.105E+00
   0.271E-05 -.135E-05 -.359E+04   0.330E-06 -.206E-06 0.358E+04   0.199E-22 0.265E-22 0.563E+01   -.526E-10 -.222E-10 -.105E+00
   0.271E-05 -.192E-06 -.359E+04   0.330E-06 0.142E-06 0.358E+04   0.662E-23 -.662E-23 0.563E+01   -.526E-10 -.457E-10 -.105E+00
   0.311E-04 -.228E-05 0.275E+01   0.471E-13 0.102E-12 0.273E-11   -.505E-22 0.662E-22 -.200E+01   0.202E-09 -.168E-09 -.648E+00

 POSITION                                       TOTAL-FORCE (eV/Angst)
      0.00000      0.00000      0.00000        -0.000000      0.000000      0.433095
      0.00000      2.56680      0.00000        -0.000000      0.000000      0.433095
      3.63000      0.00000      0.00000         0.000000     -0.000000      0.433095
      3.63000      2.56680      0.00000         0.000000     -0.000000      0.433095
      1.81500      1.28340      1.28340         0.000000      0.000000     -0.439467
      1.81500      3.85020      1.28340        -0.000000     -0.000000     -0.439467
      5.44500      1.28340      1.28340        -0.000000      0.000000     -0.439467
      5.44500      3.85020      1.28340         0.000000     -0.000000     -0.439467
     -0.00000      0.00000      2.54102         0.000000     -0.000000      0.006387
      0.00000      2.56680      2.54102         0.000000     -0.000000      0.006387
      3.63000     -0.00000      2.54102         0.000000      0.000000      0.006387
      3.63000      2.56680      2.54102         0.000000      0.000000      0.006387
      1.81500      1.28340      3.75800        -0.000000      0.000000     -0.000488
      1.81500      3.85020      3.75800        -0.000000      0.000000     -0.000488
      5.44500      1.28340      3.75800         0.000000     -0.000000     -0.000488
      5.44500      3.85020      3.75800        -0.000000      0.000000     -0.000488
      0.00000     -0.00000      5.07297        -0.000000      0.000000     -0.003512
      0.00000      2.56680      5.07297         0.000000     -0.000000     -0.003512
      3.63000     -0.00000      5.07297        -0.000000      0.000000     -0.003512
      3.63000      2.56680      5.07297         0.000000     -0.000000     -0.003512
      1.81500      1.28340      6.21847        -0.000000      0.000000      0.003985
      1.81500      3.85020      6.21847         0.000000      0.000000      0.003985
      5.44500      1.28340      6.21847         0.000000      0.000000      0.003985
      5.44500      3.85020      6.21847        -0.000000     -0.000000      0.003985
    total drift:                                0.000031     -0.000002      0.109149

  FREE ENERGIE OF THE ION-ELECTRON SYSTEM (eV)
  free  energy   TOTEN  =       -90.07631928 eV

  energy  without entropy=      -90.03171360  energy(sigma->0) =      -90.06145072

 d Force = 0.3768501E-03[-0.118E-03, 0.872E-03]  d Energy = 0.4758181E-03-0.990E-04
 d Force =-0.2352719E+02[-0.235E+02,-0.235E+02]  d Ewald  =-0.2352718E+02-0.323E-06

 stress matrix after NEB project (eV)
    -15.85860      0.00000      0.00000
      0.00000    -12.82473      0.00000
      0.00000      0.00000     -3.42127
  FORCES: max atom, RMS     0.006387    0.003397
  FORCE total and by dimension    0.016643    0.006387
  Stress total and by dimension   20.680280   15.858601
 Conjugate gradient step on ions:
 trial-energy change:   -0.000476  1 .order   -0.000377   -0.000872    0.000118
  (g-gl).g = 0.740E-03      g.g   = 0.517E-03  gl.gl    = 0.954E-02
 g(Force)  = 0.517E-03   g(Stress)= 0.000E+00 ortho     = 0.118E-05
 gamma     =   0.07758
 trial     =   1.68633
 opt step  =   1.48502  (harmonic =   1.48502) maximal distance =0.00153796
 next E    =   -90.076227   (d E  =  -0.00038)

 reached required accuracy - stopping structural energy minimisation