 vasp.6.3.2 27Jun22 (build Aug 17 2022 15:43:34) complex

 executed on           tv2STDVTST date 2025.02.03  10:46:11

 INCAR:
   ISTART = 0
   ICHARG = 2
   IPIPOL = 3
   IVDW = 11
   IDIPOL = 3
   IVDW = 11
   ISPIN = 2
   ENCUT = 400
   PREC = Normal
   EDIFF = 2E-04
   GGA = PE
   ISMEAR = 1
   SIGMA = 0.2
   LREAL = .FALSE.
   ISYM = 1
   NSW = 800
   IBRION = 2
   POTIM = 0.5
   ISIF = 2
   EDIFFG = -.03
   NPAR = 4
   LWAVE = .FALSE.
   LCHARG = .FALSE.

 POTCAR:    PAW_PBE Cu 22Jun2005
|           W    W    AA    RRRRR   N    N  II  N    N   GGGG   !!!           |
|           W    W   A  A   R    R  NN   N  II  NN   N  G    G  !!!           |
|           W    W  A    A  R    R  N N  N  II  N N  N  G       !!!           |
|           W WW W  AAAAAA  RRRRR   N  N N  II  N  N N  G  GGG   !            |
|           WW  WW  A    A  R   R   N   NN  II  N   NN  G    G                |
|           W    W  A    A  R    R  N    N  II  N    N   GGGG   !!!           |
|     You use a magnetic or noncollinear calculation, but did not specify     |
|     the initial magnetic moment with the MAGMOM tag. Note that a            |
|     default of 1 will be used for all atoms. This ferromagnetic setup       |
|     may break the symmetry of the crystal, in particular it may rule        |
|     out finding an antiferromagnetic solution. Thence, we recommend         |
|     setting the initial magnetic moment manually or verifying carefully     |
|     that this magnetic setup is desired.                                    |

   TITEL  = PAW_PBE Cu 22Jun2005
   POMASS =   63.546; ZVAL   =   11.000    mass and valenz
   ENMAX  =  295.446; ENMIN  =  221.585 eV

  PAW_PBE Cu 22Jun2005                  :

 POSCAR: FCC Cu
  positions in cartesian coordinates
  velocities in cartesian coordinates
 exchange correlation table for  LEXCH =        8
   RHO(1)=    0.500       N(1)  =     2000
   RHO(2)=  100.500       N(2)  =     4000

 VTST: version 4.2, (08/11/21)

 CHAIN: initializing optimizer

 OPT: Using VASP Conjugate-Gradient optimizer
 CHAIN: Read ICHAIN            0

 POSCAR: FCC Cu
  positions in cartesian coordinates
  velocities in cartesian coordinates

 ion  position               nearest neighbor table
   1  0.000  0.000  0.000-  19 2.57  12 2.57  18 2.57  10 2.57  16 2.57   3 2.57   2 2.57
   2  0.000  0.333  0.000-  20 2.57  10 2.57  16 2.57  11 2.57  17 2.57   1 2.57   3 2.57
   3  0.000  0.667  0.000-  21 2.57  12 2.57  11 2.57  18 2.57  17 2.57   1 2.57   2 2.57
   4  0.333  0.000  0.000-  22 2.57  12 2.57  15 2.57  10 2.57  13 2.57   6 2.57   5 2.57
   5  0.333  0.333  0.000-  23 2.57  10 2.57  13 2.57  11 2.57  14 2.57   4 2.57   6 2.57
   6  0.333  0.667  0.000-  24 2.57  12 2.57  11 2.57  15 2.57  14 2.57   4 2.57   5 2.57
   7  0.667  0.000  0.000-  25 2.57  18 2.57  16 2.57  15 2.57  13 2.57   9 2.57   8 2.57
   8  0.667  0.333  0.000-  26 2.57  16 2.57  17 2.57  13 2.57  14 2.57   7 2.57   9 2.57
   9  0.667  0.667  0.000-  27 2.57  18 2.57  17 2.57  15 2.57  14 2.57   7 2.57   8 2.57
  10  0.167  0.167  0.060-  28 2.57  23 2.57  20 2.57  19 2.57  22 2.57   5 2.57   2 2.57   1 2.57
                             4 2.57  12 2.57  11 2.57
  11  0.167  0.500  0.060-  29 2.57  21 2.57  23 2.57  24 2.57  20 2.57   3 2.57   5 2.57   6 2.57
                             2 2.57  10 2.57  12 2.57
  12  0.167  0.833  0.060-  30 2.57  22 2.57  19 2.57  24 2.57  21 2.57   4 2.57   1 2.57   6 2.57
                             3 2.57  10 2.57  11 2.57
  13  0.500  0.167  0.060-  31 2.57  23 2.57  22 2.57  26 2.57   5 2.57  25 2.57   4 2.57   8 2.57
                             7 2.57  15 2.57  14 2.57
  14  0.500  0.500  0.060-  32 2.57  24 2.57  23 2.57  27 2.57  26 2.57   6 2.57   5 2.57   9 2.57
                             8 2.57  13 2.57  15 2.57
  15  0.500  0.833  0.060-  33 2.57  22 2.57  24 2.57  25 2.57   4 2.57  27 2.57   6 2.57   7 2.57
                             9 2.57  13 2.57  14 2.57
  16  0.833  0.167  0.060-  34 2.57  26 2.57  20 2.57  25 2.57  19 2.57   8 2.57   2 2.57   7 2.57
                             1 2.57  18 2.57  17 2.57
  17  0.833  0.500  0.060-  35 2.57  27 2.57  26 2.57  21 2.57  20 2.57   9 2.57   8 2.57   3 2.57
                             2 2.57  16 2.57  18 2.57
  18  0.833  0.833  0.060-  36 2.57  25 2.57  19 2.57  27 2.57  21 2.57   7 2.57   1 2.57   9 2.57
                             3 2.57  16 2.57  17 2.57
  19  0.000  0.000  0.120-   1 2.57  37 2.57  12 2.57  18 2.57  10 2.57  16 2.57  30 2.57  36 2.57
                            28 2.57  34 2.57  21 2.57  20 2.57
  20  0.000  0.333  0.120-   2 2.57  38 2.57  10 2.57  16 2.57  11 2.57  17 2.57  28 2.57  34 2.57
                            29 2.57  35 2.57  19 2.57  21 2.57
  21  0.000  0.667  0.120-   3 2.57  39 2.57  12 2.57  11 2.57  18 2.57  17 2.57  30 2.57  29 2.57
                            36 2.57  35 2.57  19 2.57  20 2.57
  22  0.333  0.000  0.120-   4 2.57  40 2.57  12 2.57  15 2.57  10 2.57  13 2.57  30 2.57  33 2.57
                            28 2.57  31 2.57  24 2.57  23 2.57
  23  0.333  0.333  0.120-   5 2.57  41 2.57  10 2.57  13 2.57  11 2.57  14 2.57  28 2.57  31 2.57
                            29 2.57  32 2.57  22 2.57  24 2.57
  24  0.333  0.667  0.120-   6 2.57  42 2.57  12 2.57  11 2.57  15 2.57  14 2.57  30 2.57  29 2.57
                            33 2.57  32 2.57  22 2.57  23 2.57
  25  0.667  0.000  0.120-   7 2.57  43 2.57  18 2.57  16 2.57  15 2.57  36 2.57  13 2.57  34 2.57
                            33 2.57  31 2.57  27 2.57  26 2.57
  26  0.667  0.333  0.120-   8 2.57  44 2.57  16 2.57  17 2.57  13 2.57  34 2.57  14 2.57  35 2.57
                            31 2.57  32 2.57  25 2.57  27 2.57
  27  0.667  0.667  0.120-   9 2.57  45 2.57  18 2.57  17 2.57  15 2.57  14 2.57  36 2.57  35 2.57
                            33 2.57  32 2.57  25 2.57  26 2.57
  28  0.167  0.167  0.180-  46 2.57  10 2.57  41 2.57  38 2.57  37 2.57  40 2.57  23 2.57  20 2.57
                            19 2.57  22 2.57  30 2.57  29 2.57
  29  0.167  0.500  0.180-  47 2.57  11 2.57  39 2.57  41 2.57  42 2.57  38 2.57  21 2.57  23 2.57
                            24 2.57  20 2.57  28 2.57  30 2.57
  30  0.167  0.833  0.180-  48 2.57  12 2.57  40 2.57  37 2.57  22 2.57  19 2.57  42 2.57  39 2.57
                            24 2.57  21 2.57  28 2.57  29 2.57
  31  0.500  0.167  0.180-  49 2.57  13 2.57  41 2.57  40 2.57  23 2.57  44 2.57  22 2.57  43 2.57
                            26 2.57  25 2.57  33 2.57  32 2.57
  32  0.500  0.500  0.180-  50 2.57  14 2.57  42 2.57  41 2.57  24 2.57  23 2.57  45 2.57  44 2.57
                            27 2.57  26 2.57  31 2.57  33 2.57
  33  0.500  0.833  0.180-  51 2.57  15 2.57  40 2.57  22 2.57  42 2.57  43 2.57  24 2.57  25 2.57
                            45 2.57  27 2.57  31 2.57  32 2.57
  34  0.833  0.167  0.180-  52 2.57  16 2.57  44 2.57  38 2.57  43 2.57  26 2.57  37 2.57  20 2.57
                            25 2.57  19 2.57  36 2.57  35 2.57
  35  0.833  0.500  0.180-  53 2.57  17 2.57  45 2.57  44 2.57  39 2.57  38 2.57  27 2.57  26 2.57
                            21 2.57  20 2.57  34 2.57  36 2.57
  36  0.833  0.833  0.180-  54 2.57  18 2.57  43 2.57  37 2.57  25 2.57  45 2.57  19 2.57  39 2.57
                            27 2.57  21 2.57  34 2.57  35 2.57
  37  0.000  0.000  0.240-  19 2.57  30 2.57  48 2.57  36 2.57  54 2.57  28 2.57  46 2.57  34 2.57
                            52 2.57  39 2.57  38 2.57
  38  0.000  0.333  0.240-  20 2.57  28 2.57  46 2.57  34 2.57  52 2.57  29 2.57  47 2.57  35 2.57
                            53 2.57  37 2.57  39 2.57
  39  0.000  0.667  0.240-  21 2.57  29 2.57  30 2.57  47 2.57  48 2.57  35 2.57  36 2.57  53 2.57
                            54 2.57  37 2.57  38 2.57
  40  0.333  0.000  0.240-  22 2.57  30 2.57  33 2.57  48 2.57  51 2.57  28 2.57  31 2.57  46 2.57
                            49 2.57  42 2.57  41 2.57
  41  0.333  0.333  0.240-  23 2.57  28 2.57  31 2.57  46 2.57  49 2.57  29 2.57  32 2.57  47 2.57
                            50 2.57  40 2.57  42 2.57
  42  0.333  0.667  0.240-  24 2.57  29 2.57  30 2.57  32 2.57  33 2.57  47 2.57  48 2.57  50 2.57
                            51 2.57  40 2.57  41 2.57
  43  0.667  0.000  0.240-  25 2.57  36 2.57  54 2.57  34 2.57  52 2.57  33 2.57  51 2.57  31 2.57
                            49 2.57  45 2.57  44 2.57
  44  0.667  0.333  0.240-  26 2.57  34 2.57  52 2.57  35 2.57  53 2.57  31 2.57  49 2.57  32 2.57
                            50 2.57  43 2.57  45 2.57
  45  0.667  0.667  0.240-  27 2.57  35 2.57  36 2.57  53 2.57  54 2.57  32 2.57  33 2.57  50 2.57
                            51 2.57  43 2.57  44 2.57
  46  0.167  0.167  0.300-  28 2.57  38 2.57  41 2.57  40 2.57  37 2.57  48 2.57  47 2.57
  47  0.167  0.500  0.300-  29 2.57  38 2.57  39 2.57  41 2.57  42 2.57  46 2.57  48 2.57
  48  0.167  0.833  0.300-  30 2.57  37 2.57  40 2.57  39 2.57  42 2.57  46 2.57  47 2.57
  49  0.500  0.167  0.300-  31 2.57  41 2.57  40 2.57  44 2.57  43 2.57  51 2.57  50 2.57
  50  0.500  0.500  0.300-  32 2.57  41 2.57  42 2.57  44 2.57  45 2.57  49 2.57  51 2.57
  51  0.500  0.833  0.300-  33 2.57  40 2.57  42 2.57  43 2.57  45 2.57  49 2.57  50 2.57
  52  0.833  0.167  0.300-  34 2.57  44 2.57  38 2.57  43 2.57  37 2.57  54 2.57  53 2.57
  53  0.833  0.500  0.300-  35 2.57  44 2.57  45 2.57  38 2.57  39 2.57  52 2.57  54 2.57
  54  0.833  0.833  0.300-  36 2.57  43 2.57  37 2.57  45 2.57  39 2.57  52 2.57  53 2.57

  LATTYP: Found a simple orthorhombic cell.
 ALAT       =     7.7003931999
 B/A-ratio  =     1.4142135422
 C/A-ratio  =     2.7812857661

  Lattice vectors:

 A1 = (   0.0000000000,  -7.7003931999,   0.0000000000)
 A2 = (  10.8900003433,   0.0000000000,   0.0000000000)
 A3 = (   0.0000000000,   0.0000000000,  21.4169940000)

Analysis of symmetry for initial positions (statically):
 Subroutine PRICEL returns following result:

[...]

   9 primitive cells build up your supercell.

 Routine SETGRP: Setting up the symmetry group for a
 simple orthorhombic supercell.

 Subroutine GETGRP returns: Found  8 space group operations
 (whereof  4 operations were pure point group operations)
 out of a pool of  8 trial point group operations.

The static configuration has the point symmetry C_2v.
 The point group associated with its full space group is D_2h.

Analysis of symmetry for dynamics (positions and initial velocities):
 Subroutine PRICEL returns following result:

[...]

The dynamic configuration has the point symmetry C_2v.
 The point group associated with its full space group is D_2h.

Analysis of constrained symmetry for selective dynamics:
 Subroutine PRICEL returns following result:

[...]

The constrained configuration has the point symmetry C_2v.

Analysis of structural, dynamic, and magnetic symmetry:
 Subroutine PRICEL returns following result:

  LATTYP: Found a simple orthorhombic cell.
 ALAT       =     2.5667977330
 B/A-ratio  =     1.4142135422
 C/A-ratio  =     8.3438572992

  Lattice vectors:

 A1 = (   0.0000000000,  -2.5667977330,   0.0000000000)
 A2 = (   3.6300001140,   0.0000000000,   0.0000000000)
[...]
     42      -4.1979      1.00000
     43      -4.1754      1.00000
     44      -4.1215      1.00000
     45      -4.0970      1.00000
     46      -4.0968      1.00000
     47      -4.0601      1.00000
     48      -4.0502      1.00000
     49      -4.0460      1.00000
     50      -4.0391      1.00000
     51      -4.0373      1.00000
     52      -4.0304      1.00000
     53      -3.9916      1.00000
     54      -3.9770      1.00000
     55      -3.9751      1.00000
     56      -3.9744      1.00000
     57      -3.9470      1.00000
     58      -3.9367      1.00000
     59      -3.9324      1.00000
     60      -3.9298      1.00000
[...]
    370       7.0350      0.00000
    371       7.0617      0.00000
    372       7.0633      0.00000
    373       7.1174      0.00000
    374       7.1227      0.00000
    375       7.2552      0.00000
    376       7.2765      0.00000
    377       7.4753      0.00000
    378       7.5361      0.00000
    379       7.5968      0.00000
    380       7.7398      0.00000
    381       7.7910      0.00000
    382       7.8206      0.00000
    383       7.9239      0.00000
    384       8.0600      0.00000

[...]

 soft charge-density along one line, spin component           2
         0         1         2         3         4         5         6         7         8         9
 total charge-density along one line

------------------------ aborting loop because EDIFF is reached ----------------------------------------

 DIPCOR: dipole corrections for dipol
 direction  3 min pos   146,
 dipolmoment           0.000000      0.000000      0.012678 electrons x Angstroem
 Tr[quadrupol]     -9288.657686

 energy correction for charged system         0.000000 eV
 dipol+quadrupol energy correction            0.000008 eV
 added-field ion interaction          0.000000 eV  (added to PSCEN)

  *************** adding dipol energy to TOTEN NOW ****************

         DFTD3 V3.0 Rev 1
 Edisp (eV)  -18.16772

 E6    (eV) :    -7.0826
 E8    (eV) :   -11.0851
 % E8        : 61.02

  FORCE on cell =-STRESS in cart. coord.  units (eV):
  Direction    XX          YY          ZZ          XY          YZ          ZX
  Alpha Z  1187.40926  1187.40926  1187.40926
  Ewald  268657.79244270233.91428************    -0.00000    -0.00000     0.00000
  Hartree288685.25035289756.93991************     0.00000     0.00000    -0.00000
  E(xc)   -3468.35540 -3466.66093 -3473.04362     0.00000     0.00000    -0.00000
  Local  ************************577676.27639     0.00000     0.00000    -0.00000
  n-local -1193.78932 -1182.49100 -1196.49741     3.94928     0.00000    -0.00001
  augment  5102.92411  5097.46299  5118.72982     0.00000     0.00000    -0.00000
  Kinetic  4839.55958  4829.86617  4867.39323     5.34680    -0.00000     0.00001
  Fock        0.00000     0.00000     0.00000     0.00000     0.00000     0.00000
  vdW       -22.15060   -22.88166   -12.78038    -0.00000     0.00000    -0.00000
  Total     -37.82375   -37.08684    -8.55629     0.00000     0.00000     0.00000
  in kB     -33.74239   -33.08499    -7.63303     0.00000     0.00000     0.00000

 VOLUME and BASIS-vectors are now :
  energy-cutoff  :      400.00
  volume of cell :     1795.97
      direct lattice vectors                 reciprocal lattice vectors
    10.890000343  0.000000000  0.000000000     0.091827362  0.000000000  0.000000000
     0.000000000  7.700393200  0.000000000     0.000000000  0.129863498  0.000000000
     0.000000000  0.000000000 21.416994000     0.000000000  0.000000000  0.046691893

  length of vectors
    10.890000343  7.700393200 21.416994000     0.091827362  0.129863498  0.046691893

 FORCES acting on ions
    electron-ion (+dipol)            ewald-force                    non-local-force                 convergence-correction
   -.382E-13 0.627E-13 0.358E+04   -.191E-06 -.180E-08 -.358E+04   -.513E-22 0.000E+00 -.536E+01   0.323E-09 0.100E-09 -.608E-01
   -.430E-13 -.390E-04 0.358E+04   -.191E-06 0.437E-06 -.358E+04   -.331E-22 0.265E-21 -.536E+01   0.324E-09 0.172E-08 -.608E-01
   -.272E-13 0.386E-04 0.358E+04   -.191E-06 -.358E-06 -.358E+04   -.215E-22 0.000E+00 -.536E+01   0.324E-09 -.185E-08 -.608E-01
   0.176E-05 0.877E-13 0.358E+04   0.280E-06 -.180E-08 -.358E+04   0.000E+00 0.000E+00 -.536E+01   -.348E-09 0.998E-10 -.608E-01
   0.176E-05 -.390E-04 0.358E+04   0.280E-06 0.437E-06 -.358E+04   -.199E-22 0.727E-20 -.536E+01   -.348E-09 0.172E-08 -.608E-01
   0.176E-05 0.386E-04 0.358E+04   0.280E-06 -.358E-06 -.358E+04   -.993E-23 0.000E+00 -.536E+01   -.348E-09 -.185E-08 -.608E-01
   -.541E-06 0.110E-12 0.358E+04   -.292E-06 -.180E-08 -.358E+04   0.149E-22 0.000E+00 -.536E+01   0.130E-09 0.101E-09 -.608E-01
   -.541E-06 -.390E-04 0.358E+04   -.292E-06 0.437E-06 -.358E+04   0.265E-22 -.815E-20 -.536E+01   0.129E-09 0.172E-08 -.608E-01
   -.541E-06 0.386E-04 0.358E+04   -.292E-06 -.358E-06 -.358E+04   0.662E-23 0.000E+00 -.536E+01   0.129E-09 -.185E-08 -.608E-01
   0.809E-06 0.372E-04 0.232E+04   0.145E-07 0.102E-06 -.232E+04   0.926E-22 0.000E+00 0.222E-01   0.301E-10 0.291E-08 -.141E+00
   0.809E-06 -.188E-06 0.232E+04   0.145E-07 0.308E-06 -.232E+04   0.331E-22 0.000E+00 0.222E-01   0.304E-10 -.273E-09 -.141E+00
   0.809E-06 -.414E-04 0.232E+04   0.145E-07 -.567E-06 -.232E+04   0.265E-22 0.269E-20 0.222E-01   0.301E-10 -.289E-08 -.141E+00
   0.243E-05 0.372E-04 0.232E+04   0.578E-06 0.102E-06 -.232E+04   -.662E-22 0.000E+00 0.222E-01   -.432E-09 0.291E-08 -.141E+00
   0.243E-05 -.188E-06 0.232E+04   0.578E-06 0.308E-06 -.232E+04   0.000E+00 0.000E+00 0.222E-01   -.432E-09 -.273E-09 -.141E+00
   0.243E-05 -.414E-04 0.232E+04   0.578E-06 -.567E-06 -.232E+04   -.993E-23 -.358E-20 0.222E-01   -.432E-09 -.289E-08 -.141E+00
   0.311E-06 0.372E-04 0.232E+04   -.187E-06 0.102E-06 -.232E+04   0.199E-22 0.000E+00 0.222E-01   0.523E-09 0.291E-08 -.141E+00
   0.311E-06 -.188E-06 0.232E+04   -.187E-06 0.308E-06 -.232E+04   -.662E-23 0.000E+00 0.222E-01   0.523E-09 -.273E-09 -.141E+00
   0.311E-06 -.414E-04 0.232E+04   -.187E-06 -.567E-06 -.232E+04   0.232E-22 -.261E-20 0.222E-01   0.523E-09 -.288E-08 -.141E+00
   -.563E-13 0.649E-13 0.755E+03   -.300E-06 -.121E-07 -.754E+03   -.662E-23 0.000E+00 -.671E+00   0.422E-09 0.141E-09 -.151E+00
   -.587E-13 -.454E-04 0.755E+03   -.300E-06 0.587E-06 -.754E+03   0.662E-23 0.672E-20 -.671E+00   0.422E-09 0.514E-08 -.151E+00
   -.562E-13 0.450E-04 0.755E+03   -.300E-06 -.412E-06 -.754E+03   0.000E+00 0.000E+00 -.671E+00   0.423E-09 -.541E-08 -.151E+00
   0.163E-05 0.653E-13 0.755E+03   0.361E-06 -.121E-07 -.754E+03   0.000E+00 0.000E+00 -.671E+00   -.206E-09 0.141E-09 -.151E+00
   0.163E-05 -.454E-04 0.755E+03   0.361E-06 0.587E-06 -.754E+03   -.529E-22 0.129E-19 -.671E+00   -.206E-09 0.514E-08 -.151E+00
   0.163E-05 0.450E-04 0.755E+03   0.361E-06 -.412E-06 -.754E+03   0.331E-23 0.000E+00 -.671E+00   -.206E-09 -.542E-08 -.151E+00
   -.501E-06 0.577E-13 0.755E+03   -.479E-06 -.121E-07 -.754E+03   0.000E+00 0.000E+00 -.671E+00   0.288E-09 0.140E-09 -.151E+00
   -.501E-06 -.454E-04 0.755E+03   -.479E-06 0.587E-06 -.754E+03   0.662E-23 0.946E-20 -.671E+00   0.287E-09 0.514E-08 -.151E+00
   -.501E-06 0.450E-04 0.755E+03   -.479E-06 -.412E-06 -.754E+03   -.364E-22 0.000E+00 -.671E+00   0.287E-09 -.541E-08 -.151E+00
   0.823E-06 0.398E-04 -.727E+03   -.638E-09 0.108E-06 0.727E+03   0.265E-21 0.000E+00 0.738E+00   0.233E-10 -.749E-09 -.732E-01
   0.823E-06 -.189E-06 -.727E+03   -.638E-09 0.356E-06 0.727E+03   0.212E-21 0.000E+00 0.738E+00   0.236E-10 -.148E-09 -.732E-01
   0.823E-06 -.440E-04 -.727E+03   -.638E-09 -.618E-06 0.727E+03   0.238E-21 0.917E-20 0.738E+00   0.234E-10 0.105E-08 -.732E-01
   0.247E-05 0.398E-04 -.727E+03   0.626E-06 0.108E-06 0.727E+03   -.318E-21 0.000E+00 0.738E+00   -.376E-09 -.749E-09 -.732E-01
   0.247E-05 -.189E-06 -.727E+03   0.626E-06 0.356E-06 0.727E+03   -.106E-21 0.000E+00 0.738E+00   -.376E-09 -.148E-09 -.732E-01
   0.247E-05 -.440E-04 -.727E+03   0.626E-06 -.618E-06 0.727E+03   -.238E-21 0.357E-20 0.738E+00   -.375E-09 0.105E-08 -.732E-01
   0.316E-06 0.398E-04 -.727E+03   -.223E-06 0.108E-06 0.727E+03   -.794E-22 0.000E+00 0.738E+00   0.180E-09 -.749E-09 -.732E-01
   0.316E-06 -.189E-06 -.727E+03   -.223E-06 0.356E-06 0.727E+03   -.106E-21 0.000E+00 0.738E+00   0.180E-09 -.148E-09 -.732E-01
   0.316E-06 -.440E-04 -.727E+03   -.223E-06 -.618E-06 0.727E+03   0.265E-22 0.623E-20 0.738E+00   0.179E-09 0.105E-08 -.732E-01
   -.563E-13 0.766E-13 -.235E+04   -.286E-06 -.138E-07 0.235E+04   0.000E+00 0.000E+00 -.978E+00   -.116E-09 -.197E-10 -.200E-01
   -.624E-13 -.483E-04 -.235E+04   -.286E-06 0.544E-06 0.235E+04   0.000E+00 0.112E-19 -.978E+00   -.116E-09 0.219E-09 -.200E-01
   -.669E-13 0.479E-04 -.235E+04   -.286E-06 -.363E-06 0.235E+04   0.265E-22 0.000E+00 -.978E+00   -.115E-09 -.130E-09 -.200E-01
   0.160E-05 0.614E-13 -.235E+04   0.311E-06 -.138E-07 0.235E+04   0.794E-22 0.000E+00 -.978E+00   0.422E-10 -.197E-10 -.200E-01
   0.160E-05 -.483E-04 -.235E+04   0.311E-06 0.544E-06 0.235E+04   0.106E-21 -.907E-20 -.978E+00   0.423E-10 0.220E-09 -.200E-01
   0.160E-05 0.479E-04 -.235E+04   0.311E-06 -.363E-06 0.235E+04   0.000E+00 0.000E+00 -.978E+00   0.423E-10 -.130E-09 -.200E-01
   -.493E-06 0.143E-13 -.235E+04   -.451E-06 -.138E-07 0.235E+04   0.265E-22 0.000E+00 -.978E+00   -.174E-09 -.201E-10 -.200E-01
   -.493E-06 -.483E-04 -.235E+04   -.451E-06 0.544E-06 0.235E+04   0.265E-22 0.112E-19 -.978E+00   -.174E-09 0.219E-09 -.200E-01
   -.493E-06 0.479E-04 -.235E+04   -.451E-06 -.363E-06 0.235E+04   0.265E-22 0.000E+00 -.978E+00   -.174E-09 -.129E-09 -.200E-01
   0.869E-06 0.388E-04 -.358E+04   -.147E-07 0.729E-07 0.357E+04   -.662E-22 0.000E+00 0.539E+01   -.520E-10 0.769E-08 0.482E-01
   0.869E-06 -.192E-06 -.358E+04   -.147E-07 0.315E-06 0.357E+04   -.662E-22 0.000E+00 0.539E+01   -.518E-10 0.233E-09 0.482E-01
   0.869E-06 -.430E-04 -.358E+04   -.147E-07 -.483E-06 0.357E+04   0.199E-21 0.109E-19 0.539E+01   -.519E-10 -.757E-08 0.482E-01
   0.261E-05 0.388E-04 -.358E+04   0.438E-06 0.729E-07 0.357E+04   -.529E-22 0.000E+00 0.539E+01   0.211E-09 0.769E-08 0.482E-01
   0.261E-05 -.192E-06 -.358E+04   0.438E-06 0.315E-06 0.357E+04   -.106E-21 0.000E+00 0.539E+01   0.211E-09 0.233E-09 0.482E-01
   0.261E-05 -.430E-04 -.358E+04   0.438E-06 -.483E-06 0.357E+04   0.159E-21 0.884E-20 0.539E+01   0.211E-09 -.757E-08 0.482E-01
   0.334E-06 0.388E-04 -.358E+04   -.185E-06 0.729E-07 0.357E+04   0.476E-21 0.000E+00 0.539E+01   -.414E-09 0.769E-08 0.482E-01
   0.334E-06 -.192E-06 -.358E+04   -.185E-06 0.315E-06 0.357E+04   0.529E-22 0.000E+00 0.539E+01   -.414E-09 0.233E-09 0.482E-01
   0.334E-06 -.430E-04 -.358E+04   -.185E-06 -.483E-06 0.357E+04   -.635E-21 0.805E-20 0.539E+01   -.415E-09 -.757E-08 0.482E-01
   0.433E-04 -.427E-04 0.114E+02   0.954E-13 0.690E-14 0.150E-10   0.910E-22 0.850E-19 -.777E+01   0.163E-09 0.462E-09 -.358E+01

 POSITION                                       TOTAL-FORCE (eV/Angst)
      0.00000      0.00000      0.00000        -0.000000     -0.000000      0.441538
      0.00000      2.56680      0.00000         0.000000     -0.000000      0.441538
      0.00000      5.13360      0.00000         0.000000     -0.000000      0.441538
      3.63000      0.00000      0.00000        -0.000000     -0.000000      0.441538
      3.63000      2.56680      0.00000         0.000000     -0.000000      0.441538
      3.63000      5.13360      0.00000        -0.000000     -0.000000      0.441538
      7.26000      0.00000      0.00000        -0.000000     -0.000000      0.441538
      7.26000      2.56680      0.00000         0.000000     -0.000000      0.441538
      7.26000      5.13360      0.00000        -0.000000     -0.000000      0.441538
      1.81500      1.28340      1.28340         0.000000     -0.000000     -0.458378
      1.81500      3.85020      1.28340         0.000000      0.000000     -0.458378
      1.81500      6.41699      1.28340         0.000000     -0.000000     -0.458378
      5.44500      1.28340      1.28340        -0.000000      0.000000     -0.458378
      5.44500      3.85020      1.28340        -0.000000     -0.000000     -0.458378
      5.44500      6.41699      1.28340         0.000000      0.000000     -0.458378
      9.07500      1.28340      1.28340         0.000000     -0.000000     -0.458378
      9.07500      3.85020      1.28340        -0.000000     -0.000000     -0.458378
      9.07500      6.41699      1.28340        -0.000000      0.000000     -0.458378
      0.00000     -0.00000      2.54548         0.000000     -0.000000      0.014067
     -0.00000      2.56680      2.54548         0.000000      0.000000      0.014067
     -0.00000      5.13360      2.54548         0.000000     -0.000000      0.014067
      3.63000     -0.00000      2.54548        -0.000000     -0.000000      0.014067
      3.63000      2.56680      2.54548        -0.000000     -0.000000      0.014067
      3.63000      5.13360      2.54548        -0.000000     -0.000000      0.014067
      7.26000      0.00000      2.54548        -0.000000     -0.000000      0.014067
      7.26000      2.56680      2.54548        -0.000000      0.000000      0.014067
      7.26000      5.13360      2.54548        -0.000000     -0.000000      0.014067
      1.81500      1.28340      3.78078         0.000000     -0.000000      0.013517
      1.81500      3.85020      3.78078         0.000000      0.000000      0.013517
      1.81500      6.41699      3.78078        -0.000000     -0.000000      0.013517
      5.44500      1.28340      3.78078        -0.000000      0.000000      0.013517
      5.44500      3.85020      3.78078        -0.000000      0.000000      0.013517
      5.44500      6.41699      3.78078         0.000000     -0.000000      0.013517
      9.07500      1.28340      3.78078        -0.000000     -0.000000      0.013517
      9.07500      3.85020      3.78078         0.000000     -0.000000      0.013517
      9.07500      6.41699      3.78078         0.000000     -0.000000      0.013517
     -0.00000     -0.00000      5.10700         0.000000     -0.000000     -0.002719
      0.00000      2.56680      5.10700        -0.000000      0.000000     -0.002719
      0.00000      5.13360      5.10700         0.000000     -0.000000     -0.002719
      3.63000     -0.00000      5.10700        -0.000000     -0.000000     -0.002719
      3.63000      2.56680      5.10700        -0.000000      0.000000     -0.002719
      3.63000      5.13360      5.10700        -0.000000     -0.000000     -0.002719
      7.26000     -0.00000      5.10700         0.000000     -0.000000     -0.002719
      7.26000      2.56680      5.10700         0.000000      0.000000     -0.002719
      7.26000      5.13360      5.10700         0.000000     -0.000000     -0.002719
      1.81500      1.28340      6.25033        -0.000000     -0.000000     -0.008025
      1.81500      3.85020      6.25033        -0.000000     -0.000000     -0.008025
      1.81500      6.41699      6.25033         0.000000     -0.000000     -0.008025
      5.44500      1.28340      6.25033        -0.000000     -0.000000     -0.008025
      5.44500      3.85020      6.25033         0.000000     -0.000000     -0.008025
      5.44500      6.41699      6.25033        -0.000000     -0.000000     -0.008025
      9.07500      1.28340      6.25033        -0.000000     -0.000000     -0.008025
      9.07500      3.85020      6.25033         0.000000     -0.000000     -0.008025
      9.07500      6.41699      6.25033         0.000000     -0.000000     -0.008025
    total drift:                                0.000043     -0.000043      0.017729

  FREE ENERGIE OF THE ION-ELECTRON SYSTEM (eV)
  free  energy   TOTEN  =      -203.21606341 eV

  energy  without entropy=     -203.13494604  energy(sigma->0) =     -203.18902429

 d Force = 0.2683487E-02[-0.154E-02, 0.691E-02]  d Energy = 0.2781826E-02-0.983E-04
 d Force =-0.4124779E+03[-0.413E+03,-0.412E+03]  d Ewald  =-0.4124780E+03 0.727E-04

 stress matrix after NEB project (eV)
    -37.82375      0.00000      0.00000
      0.00000    -37.08684      0.00000
      0.00000      0.00000     -8.55629
  FORCES: max atom, RMS     0.014067    0.008683
  FORCE total and by dimension    0.063809    0.014067
  Stress total and by dimension   53.658919   37.823749
 Conjugate gradient step on ions:
 trial-energy change:   -0.002782  1 .order   -0.002683   -0.006905    0.001538
  (g-gl).g = 0.483E-02      g.g   = 0.268E-02  gl.gl    = 0.961E-02
 g(Force)  = 0.268E-02   g(Stress)= 0.000E+00 ortho     =-0.507E-03
 gamma     =   0.50256
 trial     =   2.85099
 opt step  =   2.33160  (harmonic =   2.33160) maximal distance =0.00000000
 next E    =  -203.216105   (d E  =  -0.00282)

 reached required accuracy - stopping structural energy minimisation