 vasp.6.3.2 27Jun22 (build Aug 17 2022 15:43:34) complex

 executed on           tv2STDVTST date 2025.01.21  12:32:46

 INCAR:
   ISTART = 0
   ICHARG = 2
   IPIPOL = 3
   IVDW = 11
   IDIPOL = 3
   IVDW = 11
   ISPIN = 2
   ENCUT = 400
   PREC = Normal
   EDIFF = 2E-04
   GGA = PE
   ISMEAR = 1
   SIGMA = 0.2
   LREAL = .FALSE.
   ISYM = 1
   NSW = 800
   IBRION = 2
   POTIM = 0.5
   ISIF = 2
   EDIFFG = -.03
   NPAR = 4
   LWAVE = .FALSE.
   LCHARG = .FALSE.

 POTCAR:    PAW_PBE Cu 22Jun2005
|           W    W    AA    RRRRR   N    N  II  N    N   GGGG   !!!           |
|           W    W   A  A   R    R  NN   N  II  NN   N  G    G  !!!           |
|           W    W  A    A  R    R  N N  N  II  N N  N  G       !!!           |
|           W WW W  AAAAAA  RRRRR   N  N N  II  N  N N  G  GGG   !            |
|           WW  WW  A    A  R   R   N   NN  II  N   NN  G    G                |
|           W    W  A    A  R    R  N    N  II  N    N   GGGG   !!!           |
|     You use a magnetic or noncollinear calculation, but did not specify     |
|     the initial magnetic moment with the MAGMOM tag. Note that a            |
|     default of 1 will be used for all atoms. This ferromagnetic setup       |
|     may break the symmetry of the crystal, in particular it may rule        |
|     out finding an antiferromagnetic solution. Thence, we recommend         |
|     setting the initial magnetic moment manually or verifying carefully     |
|     that this magnetic setup is desired.                                    |

   TITEL  = PAW_PBE Cu 22Jun2005
   POMASS =   63.546; ZVAL   =   11.000    mass and valenz
   ENMAX  =  295.446; ENMIN  =  221.585 eV

  PAW_PBE Cu 22Jun2005                  :

 POSCAR: FCC Cu
  positions in cartesian coordinates
  velocities in cartesian coordinates
 exchange correlation table for  LEXCH =        8
   RHO(1)=    0.500       N(1)  =     2000
   RHO(2)=  100.500       N(2)  =     4000

 VTST: version 4.2, (08/11/21)

 CHAIN: initializing optimizer

 OPT: Using VASP Conjugate-Gradient optimizer
 CHAIN: Read ICHAIN            0

 POSCAR: FCC Cu
  positions in cartesian coordinates
  velocities in cartesian coordinates

 ion  position               nearest neighbor table
   1  0.000  0.000  0.000-   3 2.57   4 2.57   3 2.57   4 2.57   2 2.57   2 2.57   2 2.57   2 2.57

   2  0.500  0.500  0.000-   3 2.57   4 2.57   3 2.57   4 2.57   1 2.57   1 2.57   1 2.57   1 2.57

   3  0.000  0.500  0.070-   5 2.57   6 2.57   5 2.57   6 2.57   2 2.57   1 2.57   2 2.57   1 2.57
                             4 2.57   4 2.57   4 2.57   4 2.57
   4  0.500  0.000  0.070-   5 2.57   6 2.57   5 2.57   6 2.57   2 2.57   1 2.57   2 2.57   1 2.57
                             3 2.57   3 2.57   3 2.57   3 2.57
   5  0.000  0.000  0.140-   3 2.57   4 2.57   3 2.57   4 2.57   7 2.57   8 2.57   7 2.57   8 2.57
                             6 2.57   6 2.57   6 2.57   6 2.57
   6  0.500  0.500  0.140-   3 2.57   4 2.57   3 2.57   4 2.57   7 2.57   8 2.57   7 2.57   8 2.57
                             5 2.57   5 2.57   5 2.57   5 2.57
   7  0.000  0.500  0.210-   9 2.57  10 2.57   9 2.57  10 2.57   6 2.57   5 2.57   6 2.57   5 2.57
                             8 2.57   8 2.57   8 2.57   8 2.57
   8  0.500  0.000  0.210-   9 2.57  10 2.57   9 2.57  10 2.57   6 2.57   5 2.57   6 2.57   5 2.57
                             7 2.57   7 2.57   7 2.57   7 2.57
   9  0.000  0.000  0.280-   7 2.57   8 2.57  11 2.57  12 2.57   7 2.57  11 2.57   8 2.57  12 2.57
                            10 2.57  10 2.57  10 2.57  10 2.57
  10  0.500  0.500  0.280-   7 2.57   8 2.57  11 2.57  12 2.57   7 2.57  11 2.57   8 2.57  12 2.57
                             9 2.57   9 2.57   9 2.57   9 2.57
  11  0.000  0.500  0.351-  13 2.57  14 2.57  13 2.57  14 2.57  10 2.57   9 2.57  10 2.57   9 2.57
                            12 2.57  12 2.57  12 2.57  12 2.57
  12  0.500  0.000  0.351-  13 2.57  14 2.57  13 2.57  14 2.57  10 2.57   9 2.57  10 2.57   9 2.57
                            11 2.57  11 2.57  11 2.57  11 2.57
  13  0.000  0.000  0.421-  11 2.57  12 2.57  11 2.57  12 2.57  14 2.57  14 2.57  14 2.57  14 2.57

  14  0.500  0.500  0.421-  11 2.57  12 2.57  11 2.57  12 2.57  13 2.57  13 2.57  13 2.57  13 2.57

  LATTYP: Found a simple tetragonal cell.
 ALAT       =     3.6300001144
 C/A-ratio  =     7.1322311802

  Lattice vectors:

 A1 = (   3.6300001144,   0.0000000000,   0.0000000000)
 A2 = (   0.0000000000,   3.6300001144,   0.0000000000)
 A3 = (   0.0000000000,   0.0000000000,  25.8900000000)

Analysis of symmetry for initial positions (statically):
 Subroutine PRICEL returns following result:

[...]

   2 primitive cells build up your supercell.

 Routine SETGRP: Setting up the symmetry group for a
 simple tetragonal supercell.

 Subroutine GETGRP returns: Found 16 space group operations
 (whereof  8 operations were pure point group operations)
 out of a pool of 16 trial point group operations.

The static configuration has the point symmetry C_4v.
 The point group associated with its full space group is D_4h.

Analysis of symmetry for dynamics (positions and initial velocities):
 Subroutine PRICEL returns following result:

[...]

The dynamic configuration has the point symmetry C_4v.
 The point group associated with its full space group is D_4h.

Analysis of constrained symmetry for selective dynamics:
 Subroutine PRICEL returns following result:

[...]

The constrained configuration has the point symmetry C_4v.

Analysis of structural, dynamic, and magnetic symmetry:
 Subroutine PRICEL returns following result:

  LATTYP: Found a simple tetragonal cell.
 ALAT       =     2.5667976966
 C/A-ratio  =    10.0864980650

  Lattice vectors:

 A1 = (   1.8150000570,  -1.8150000574,   0.0000000000)
 A2 = (   1.8150000570,   1.8150000570,   0.0000000000)
 A3 = (   0.0000000000,   0.0000000000,  25.8900000000)

   2 primitive cells build up your supercell.

 Routine SETGRP: Setting up the symmetry group for a
 simple tetragonal supercell.

 Subroutine GETGRP returns: Found  8 space group operations
 (whereof  8 operations were pure point group operations)
 out of a pool of 16 trial point group operations.

The overall configuration has the point symmetry C_4v.

 Subroutine INISYM returns: Found  8 space group operations
 (whereof  8 operations are pure point group operations),
 and found     2 'primitive' translations

                                     Primitive cell

  volume of cell :     170.5750

  direct lattice vectors                    reciprocal lattice vectors
     1.815000057 -1.815000057  0.000000000     0.275482085 -0.275482085  0.000000000
     1.815000057  1.815000057  0.000000000     0.275482085  0.275482085  0.000000000
     0.000000000  0.000000000 25.890000000     0.000000000  0.000000000  0.038624952

  length of vectors
     2.566797697  2.566797696 25.890000000     0.389590501  0.389590501  0.038624952

  position of ions in fractional coordinates (direct lattice)
     0.000000000  0.000000000  0.000000000
     0.500000000  0.500000000  0.070104288
     0.000000000  0.000000000  0.140208577
     0.500000000  0.500000000  0.210312865
     0.000000000  0.000000000  0.280417153
     0.500000000  0.500000000  0.350521442
     0.000000000  0.000000000  0.420625730

  ion indices of the primitive-cell ions
   primitive index   ion index
                 1           1
                 2           3
                 3           5
                 4           7
                 5           9
                 6          11
                 7          13

 KPOINTS: Auto-mesh

Automatic generation of k-mesh.
 Grid dimensions read from file:
 generate k-points for:    3    3    1

 Generating k-lattice:

  Cartesian coordinates                     Fractional coordinates (reciprocal lattice)
     0.091827362  0.000000000  0.000000000     0.333333333  0.000000000  0.000000000
     0.000000000  0.091827362  0.000000000     0.000000000  0.333333333  0.000000000
     0.000000000  0.000000000  0.038624952     0.000000000  0.000000000  1.000000000

  Length of vectors
     0.091827362  0.091827362  0.038624952

  Shift w.r.t. Gamma in fractional coordinates (k-lattice)
     0.000000000  0.000000000  0.000000000

 Subroutine IBZKPT returns following result:

 Found      3 irreducible k-points:

 Following reciprocal coordinates:
            Coordinates               Weight
  0.000000  0.000000  0.000000      1.000000
  0.333333  0.000000  0.000000      4.000000
  0.333333  0.333333  0.000000      4.000000

 Following cartesian coordinates:
            Coordinates               Weight
  0.000000  0.000000  0.000000      1.000000
  0.091827  0.000000  0.000000      4.000000
  0.091827  0.091827  0.000000      4.000000

 SYSTEM =  unknown system
 POSCAR =  FCC Cu

 Startparameter for this run:
   NWRITE =      2    write-flag & timer
   PREC   = normal    normal or accurate (medium, high low for compatibility)
   ISTART =      0    job   : 0-new  1-cont  2-samecut
   ICHARG =      2    charge: 1-file 2-atom 10-const
   ISPIN  =      2    spin polarized calculation?
   LNONCOLLINEAR =      F non collinear calculations
   LSORBIT =      F    spin-orbit coupling
   INIWAV =      1    electr: 0-lowe 1-rand  2-diag
   LASPH  =      F    aspherical Exc in radial PAW
 Electronic Relaxation 1
   ENCUT  =  400.0 eV  29.40 Ry    5.42 a.u.   5.92  5.92 42.22*2*pi/ulx,y,z
   ENINI  =  400.0     initial cutoff
   ENAUG  =  587.0 eV  augmentation charge cutoff
   NELM   =     60;   NELMIN=  2; NELMDL= -5     # of ELM steps
   EDIFF  = 0.2E-03   stopping-criterion for ELM
   LREAL  =      F    real-space projection
   NLSPLINE    = F    spline interpolate recip. space projectors
   LCOMPAT=      F    compatible to vasp.4.4
   GGA_COMPAT  = T    GGA compatible to vasp.4.4-vasp.4.6
   LMAXPAW     = -100 max onsite density
   LMAXMIX     =    2 max onsite mixed and CHGCAR
   VOSKOWN=      0    Vosko Wilk Nusair interpolation
   ROPT   =    0.00000
 Ionic relaxation
   EDIFFG = -.3E-01   stopping-criterion for IOM
   NSW    =    800    number of steps for IOM
   NBLOCK =      1;   KBLOCK =    800    inner block; outer block
   IBRION =      2    ionic relax: 0-MD 1-quasi-New 2-CG
   NFREE  =      1    steps in history (QN), initial steepest desc. (CG)
   ISIF   =      2    stress and relaxation
   IWAVPR =     11    prediction:  0-non 1-charg 2-wave 3-comb
   ISYM   =      1    0-nonsym 1-usesym 2-fastsym
   LCORR  =      T    Harris-Foulkes like correction to forces

   POTIM  = 0.5000    time-step for ionic-motion
   TEIN   =    0.0    initial temperature
   TEBEG  =    0.0;   TEEND  =   0.0 temperature during run
   SMASS  =  -3.00    Nose mass-parameter (am)
   estimated Nose-frequenzy (Omega)   =  0.10E-29 period in steps = 0.13E+47 mass=  -0.301E-27a.u.
   SCALEE = 1.0000    scale energy and forces
   NPACO  =    256;   APACO  = 10.0  distance and # of slots for P.C.
   PSTRESS=    0.0 pullay stress

  Mass of Ions in am
   POMASS =  63.55
  Ionic Valenz
   ZVAL   =  11.00
  Atomic Wigner-Seitz radii
  virtual crystal weights
   VCA    =   1.00
   NELECT =     154.0000    total number of electrons
[...]
 next E    =   -54.653698   (d E  =  -0.02170)

[...]

 stress matrix after NEB project (eV)
     -5.31141      0.00000     -0.00000
      0.00000     -5.31141      0.00000
      0.00000      0.00000     -2.24339
  FORCES: max atom, RMS     0.065423    0.032020
  FORCE total and by dimension    0.119807    0.065423
  Stress total and by dimension    7.839321    5.311410
 Conjugate gradient step on ions:
 trial-energy change:   -0.006529  1 .order   -0.005406   -0.008684   -0.002129
  (g-gl).g = 0.666E-02      g.g   = 0.527E-02  gl.gl    = 0.104E-01
 g(Force)  = 0.527E-02   g(Stress)= 0.000E+00 ortho     =-0.955E-03
 gamma     =   0.63929
 trial     =   1.86396
 opt step  =   2.14170  (harmonic =   2.46955) maximal distance =0.00000000
 next E    =   -54.690928   (d E  =  -0.00669)

[...]

 d Force = 0.4722787E-05[-0.108E-04, 0.203E-04]  d Energy =-0.2442132E-03 0.249E-03
 d Force = 0.2130451E+02[ 0.213E+02, 0.213E+02]  d Ewald  = 0.2130451E+02-0.916E-07

[...]

 d Force =-0.1025623E-04[-0.243E-04, 0.377E-05]  d Energy = 0.9841160E-04-0.109E-03
 d Force =-0.7417395E+01[-0.742E+01,-0.742E+01]  d Ewald  =-0.7417395E+01 0.358E-08

[...]

 d Force = 0.1423592E-04[ 0.745E-05, 0.210E-04]  d Energy =-0.5215545E-04 0.664E-04
 d Force = 0.6420369E+01[ 0.642E+01, 0.642E+01]  d Ewald  = 0.6420369E+01-0.252E-08

[...]

 Broyden mixing:
  rms(total) = 0.12655E-02    rms(broyden)= 0.11142E-02
  rms(prec ) = 0.17378E-02
  weight for this iteration     100.00
  WARNING: grid for Broyden might be to small

[...]

 d Force =-0.1011569E-05[-0.283E-05, 0.805E-06]  d Energy =-0.9905725E-05 0.889E-05
 d Force = 0.6933411E+00[ 0.693E+00, 0.693E+00]  d Ewald  = 0.6933411E+00 0.713E-09

[...]

 d Force = 0.1948714E-06[-0.227E-06, 0.617E-06]  d Energy = 0.3755857E-04-0.374E-04
 d Force = 0.2698679E+00[ 0.270E+00, 0.270E+00]  d Ewald  = 0.2698679E+00 0.451E-09

[...]

 d Force = 0.3356785E-07[ 0.587E-08, 0.613E-07]  d Energy = 0.1153927E-04-0.115E-04
 d Force =-0.7267839E-01[-0.727E-01,-0.727E-01]  d Ewald  =-0.7267839E-01 0.146E-09

 stress matrix after NEB project (eV)
     -4.74140      0.00000      0.00000
      0.00000     -4.74140      0.00000
      0.00000      0.00000     -1.68706
  FORCES: max atom, RMS     0.038441    0.020465
  FORCE total and by dimension    0.076573    0.038441
  Stress total and by dimension    6.914325    4.741399

[...]

 eigenvalue-minimisations  :  1872
 total energy-change (2. order) :-0.7135907E-03  (-0.7151283E-03)
 number of electron     154.0002796 magnetization      -0.0000040
 augmentation part       98.1812371 magnetization      -0.0000028

 Broyden mixing:
  rms(total) = 0.86197E-02    rms(broyden)= 0.86148E-02
  rms(prec ) = 0.10696E-01
  weight for this iteration     100.00

 eigenvalues of (default mixing * dielectric matrix)
  average eigenvalue GAMMA=   0.2378
  0.2378

[...]

--------------------------------------- Iteration     25(   3)  ---------------------------------------

 eigenvalue-minimisations  :  1080
 total energy-change (2. order) : 0.7321574E-04  (-0.9968228E-04)
 number of electron     154.0002796 magnetization      -0.0000040
 augmentation part       98.1812371 magnetization      -0.0000028

 Free energy of the ion-electron system (eV)
  alpha Z        PSCENC =       420.16799357
  Ewald energy   TEWEN  =     84182.79227980
  -Hartree energ DENC   =   -102993.60848389
  -exchange      EXHF   =         0.00000000
  -V(xc)+E(xc)   XCENC  =       624.43571686
  PAW double counting   =     18397.38113718   -19907.41953169
  entropy T*S    EENTRO =        -0.02627789
  eigenvalues    EBANDS =      -246.09160983
  atomic energy  EATOM  =     19473.40696280
  Solvation  Ediel_sol  =         0.00000000
  free energy    TOTEN  =       -48.96181309 eV

  energy without entropy =      -48.93553520  energy(sigma->0) =      -48.95305380

 average (electrostatic) potential at core
  the test charge radii are     0.9430
  (the norm of the test charge is              1.0000)
       1 -69.6482       2 -69.6482       3 -70.0183       4 -70.0183       5 -69.9332
       6 -69.9332       7 -69.8676       8 -69.8676       9 -69.9199      10 -69.9199
      11 -70.0418      12 -70.0418      13 -69.6908      14 -69.6908

 E-fermi :   1.4350     XC(G=0):  -6.8498     alpha+bet : -6.5063

 Fermi energy:         1.4349787738

[...]

 k-point     3 :       0.3333    0.3333    0.0000
  band No.  band energies     occupation
      1      -5.4836      1.00000
      2      -4.9755      1.00000
      3      -4.3054      1.00000
      4      -3.6910      1.00000
      5      -3.4106      1.00000
      6      -3.3947      1.00000
      7      -3.3612      1.00000
      8      -3.3062      1.00000
      9      -3.2631      1.00000
     10      -3.1937      1.00000
     11      -2.9038      1.00000
     12      -2.8459      1.00000
     13      -2.8257      1.00000
     14      -2.7272      1.00000
     15      -2.5393      1.00000
     16      -2.3604      1.00000
     17      -2.3238      1.00000
     18      -2.2679      1.00000
     19      -2.2218      1.00000
     20      -2.1342      1.00000
     21      -2.0806      1.00000
     22      -2.0363      1.00000
     23      -1.9116      1.00000
     24      -1.9013      1.00000
     25      -1.8927      1.00000
     26      -1.8680      1.00000
     27      -1.7997      1.00000
     28      -1.7880      1.00000
     29      -1.7861      1.00000
     30      -1.6736      1.00000
     31      -1.6709      1.00000
     32      -1.6690      1.00000
     33      -1.6249      1.00000
     34      -1.6077      1.00000
     35      -1.5795      1.00000
     36      -1.5446      1.00000
     37      -1.5387      1.00000
     38      -1.5071      1.00000
     39      -1.4891      1.00000
     40      -1.4835      1.00000
     41      -1.4551      1.00000
     42      -1.4520      1.00000
     43      -1.3430      1.00000
     44      -1.3081      1.00000
     45      -1.2898      1.00000
     46      -1.2416      1.00000
     47      -1.2279      1.00000
     48      -1.1699      1.00000
     49      -1.1671      1.00000
     50      -1.1160      1.00000
     51      -1.0710      1.00000
     52      -1.0367      1.00000
     53      -0.9852      1.00000
     54      -0.9351      1.00000
     55      -0.8257      1.00000
     56      -0.7655      1.00000
     57      -0.6329      1.00000
     58      -0.6152      1.00000
     59      -0.6115      1.00000
     60      -0.5488      1.00000
[...]
     86       5.1354     -0.00000
     87       5.3173     -0.00000
     88       5.4731     -0.00000
     89       6.3136     -0.00000
     90       6.7620     -0.00000
     91       6.8368     -0.00000
     92       7.0010      0.00000
     93       7.9011      0.00000
     94       7.9482      0.00000
     95       8.2122      0.00000
     96       8.7392      0.00000
     97       8.8432      0.00000
     98       9.3994      0.00000
     99       9.4740      0.00000
    100       9.6623      0.00000
 Fermi energy:         1.4349787738

 spin component 2

[...]

 k-point     3 :       0.3333    0.3333    0.0000
  band No.  band energies     occupation
      1      -5.4836      1.00000
      2      -4.9755      1.00000
      3      -4.3054      1.00000
      4      -3.6910      1.00000
      5      -3.4106      1.00000
      6      -3.3947      1.00000
      7      -3.3612      1.00000
      8      -3.3062      1.00000
      9      -3.2631      1.00000
     10      -3.1937      1.00000
     11      -2.9038      1.00000
     12      -2.8459      1.00000
     13      -2.8257      1.00000
     14      -2.7272      1.00000
     15      -2.5393      1.00000
     16      -2.3604      1.00000
     17      -2.3238      1.00000
     18      -2.2679      1.00000
     19      -2.2218      1.00000
     20      -2.1342      1.00000
     21      -2.0806      1.00000
     22      -2.0363      1.00000
     23      -1.9116      1.00000
     24      -1.9013      1.00000
     25      -1.8927      1.00000
     26      -1.8680      1.00000
     27      -1.7997      1.00000
     28      -1.7880      1.00000
     29      -1.7861      1.00000
     30      -1.6736      1.00000
     31      -1.6709      1.00000
     32      -1.6690      1.00000
     33      -1.6249      1.00000
     34      -1.6077      1.00000
     35      -1.5795      1.00000
     36      -1.5446      1.00000
     37      -1.5387      1.00000
     38      -1.5071      1.00000
     39      -1.4891      1.00000
     40      -1.4835      1.00000
     41      -1.4551      1.00000
     42      -1.4520      1.00000
     43      -1.3430      1.00000
     44      -1.3081      1.00000
     45      -1.2898      1.00000
     46      -1.2416      1.00000
     47      -1.2279      1.00000
     48      -1.1699      1.00000
     49      -1.1671      1.00000
     50      -1.1160      1.00000
     51      -1.0710      1.00000
     52      -1.0367      1.00000
     53      -0.9852      1.00000
     54      -0.9351      1.00000
     55      -0.8257      1.00000
     56      -0.7655      1.00000
     57      -0.6329      1.00000
     58      -0.6152      1.00000
     59      -0.6115      1.00000
     60      -0.5488      1.00000
[...]
     86       5.1354     -0.00000
     87       5.3173     -0.00000
     88       5.4731     -0.00000
     89       6.3136     -0.00000
     90       6.7620     -0.00000
     91       6.8368     -0.00000
     92       7.0010      0.00000
     93       7.9011      0.00000
     94       7.9482      0.00000
     95       8.2120      0.00000
     96       8.7391      0.00000
     97       8.8432      0.00000
     98       9.3991      0.00000
     99       9.4740      0.00000
    100       9.6623      0.00000

[...]

 soft charge-density along one line, spin component           2
         0         1         2         3         4         5         6         7         8         9
 total charge-density along one line

------------------------ aborting loop because EDIFF is reached ----------------------------------------

 DIPCOR: dipole corrections for dipol
 direction  3 min pos   177,
 dipolmoment           0.000000      0.000000     -0.003406 electrons x Angstroem
 Tr[quadrupol]      -505.429905

 energy correction for charged system         0.000000 eV
 dipol+quadrupol energy correction            0.000003 eV
 added-field ion interaction          0.000000 eV  (added to PSCEN)

  *************** adding dipol energy to TOTEN NOW ****************

         DFTD3 V3.0 Rev 1
 Edisp (eV)   -5.73014

 E6    (eV) :    -2.3143
 E8    (eV) :    -3.4158
 % E8        : 59.61

  FORCE on cell =-STRESS in cart. coord.  units (eV):
  Direction    XX          YY          ZZ          XY          YZ          ZX
  Alpha Z   420.16799   420.16799   420.16799
  Ewald   94412.97183 94412.97183************     0.00000     0.00000    -0.00000
  Hartree 99774.61696 99774.61696-96556.61747    -0.00000    -0.00000    -0.00000
  E(xc)    -900.00602  -900.00602  -901.00783    -0.00000     0.00000     0.00000
  Local  ************************199390.74496     0.00000    -0.00000    -0.00000
  n-local  -289.04009  -304.45764  -297.06546     6.15624     0.00000     0.00000
  augment  1324.05256  1324.05256  1329.55445     0.00000    -0.00000     0.00000
  Kinetic  1269.69365  1243.57791  1261.16027    -2.72336    -0.00000    -0.00000
  Fock        0.00000     0.00000     0.00000     0.00000     0.00000     0.00000
  vdW        -6.96299    -6.96299    -5.25291     0.00000     0.00000     0.00000
  Total      -4.56115    -4.56115    -1.48520     0.00000     0.00000     0.00000
  in kB     -21.42099   -21.42099    -6.97510     0.00000     0.00000     0.00000

 VOLUME and BASIS-vectors are now :
  energy-cutoff  :      400.00
  volume of cell :      341.15
      direct lattice vectors                 reciprocal lattice vectors
     3.630000114  0.000000000  0.000000000     0.275482085  0.000000000  0.000000000
     0.000000000  3.630000114  0.000000000     0.000000000  0.275482085  0.000000000
     0.000000000  0.000000000 25.890000000     0.000000000  0.000000000  0.038624952

  length of vectors
     3.630000114  3.630000114 25.890000000     0.275482085  0.275482085  0.038624952

 FORCES acting on ions
    electron-ion (+dipol)            ewald-force                    non-local-force                 convergence-correction
   -.794E-13 -.285E-12 0.517E+04   -.923E-07 -.923E-07 -.516E+04   0.000E+00 0.000E+00 -.268E+01   0.636E-11 0.665E-11 0.138E+00
   0.774E-06 0.774E-06 0.517E+04   0.923E-07 0.923E-07 -.516E+04   0.414E-24 -.165E-23 -.268E+01   0.272E-10 0.263E-10 0.138E+00
   -.390E-13 0.753E-06 0.353E+04   -.128E-06 0.128E-06 -.353E+04   0.000E+00 0.993E-23 -.178E+01   0.152E-09 -.668E-11 -.152E+00
   0.753E-06 -.490E-12 0.353E+04   0.128E-06 -.128E-06 -.353E+04   -.331E-23 0.662E-23 -.178E+01   -.661E-11 0.153E-09 -.152E+00
   -.173E-13 -.304E-12 0.178E+04   -.134E-06 -.134E-06 -.177E+04   0.000E+00 0.000E+00 0.393E+00   0.301E-10 0.304E-10 -.795E+00
   0.749E-06 0.749E-06 0.178E+04   0.134E-06 0.134E-06 -.177E+04   0.000E+00 0.000E+00 0.393E+00   0.445E-10 0.444E-10 -.795E+00
   -.249E-13 0.748E-06 0.470E+01   -.135E-06 0.135E-06 -.403E+01   0.000E+00 -.248E-23 0.232E-01   -.227E-09 0.874E-10 -.688E+00
   0.748E-06 -.315E-13 0.470E+01   0.135E-06 -.135E-06 -.403E+01   -.414E-24 0.331E-23 0.232E-01   0.875E-10 -.227E-09 -.688E+00
   -.151E-13 -.200E-11 -.176E+04   -.133E-06 -.133E-06 0.176E+04   0.000E+00 0.496E-23 -.334E+00   0.274E-10 0.276E-10 -.314E+00
   0.750E-06 0.750E-06 -.176E+04   0.133E-06 0.133E-06 0.176E+04   0.165E-23 -.165E-23 -.334E+00   -.584E-10 -.583E-10 -.314E+00
   -.381E-13 0.751E-06 -.352E+04   -.130E-06 0.130E-06 0.352E+04   0.000E+00 -.827E-24 0.168E+01   0.118E-09 -.968E-10 -.347E+00
   0.751E-06 0.128E-11 -.352E+04   0.130E-06 -.130E-06 0.352E+04   -.103E-24 -.662E-23 0.168E+01   -.971E-10 0.118E-09 -.347E+00
   -.566E-13 0.779E-12 -.519E+04   -.958E-07 -.958E-07 0.519E+04   0.000E+00 -.331E-23 0.289E+01   -.619E-10 -.617E-10 -.728E-01
   0.772E-06 0.772E-06 -.519E+04   0.958E-07 0.958E-07 0.519E+04   0.414E-24 0.496E-23 0.289E+01   -.729E-10 -.728E-10 -.728E-01
   0.530E-05 0.530E-05 0.406E+01   -.319E-13 -.594E-13 0.182E-11   -.134E-23 0.132E-22 0.367E+00   -.305E-10 -.296E-10 -.446E+01

 POSITION                                       TOTAL-FORCE (eV/Angst)
      0.00000      0.00000      0.00000        -0.000000      0.000000      0.211834
      1.81500      1.81500      0.00000         0.000000     -0.000000      0.211834
      0.00000      1.81500      1.81500        -0.000000      0.000000     -0.225809
      1.81500      0.00000      1.81500         0.000000     -0.000000     -0.225809
     -0.00000      0.00000      3.55573        -0.000000     -0.000000      0.008683
      1.81500      1.81500      3.55573        -0.000000     -0.000000      0.008683
      0.00000      1.81500      5.28000         0.000000     -0.000000      0.005998
      1.81500      0.00000      5.28000        -0.000000      0.000000      0.005998
      0.00000      0.00000      7.00724        -0.000000     -0.000000     -0.002320
      1.81500      1.81500      7.00724         0.000000      0.000000     -0.002320
     -0.00000      1.81500      8.75968        -0.000000     -0.000000     -0.001494
      1.81500      0.00000      8.75968        -0.000000      0.000000     -0.001494
      0.00000      0.00000     10.51467        -0.000000      0.000000      0.003108
      1.81500      1.81500     10.51467         0.000000      0.000000      0.003108
    total drift:                                0.000005      0.000005     -0.033832

  FREE ENERGIE OF THE ION-ELECTRON SYSTEM (eV)
  free  energy   TOTEN  =       -54.69195380 eV

  energy  without entropy=      -54.66567591  energy(sigma->0) =      -54.68319450

 d Force = 0.2336000E-03[-0.103E-03, 0.570E-03]  d Energy = 0.3354814E-03-0.102E-03
 d Force =-0.4532767E+01[-0.455E+01,-0.452E+01]  d Ewald  =-0.4532772E+01 0.545E-05

 stress matrix after NEB project (eV)
     -4.56115      0.00000      0.00000
      0.00000     -4.56115      0.00000
     -0.00000      0.00000     -1.48520
  FORCES: max atom, RMS     0.008683    0.004287
  FORCE total and by dimension    0.016041    0.008683
  Stress total and by dimension    6.619215    4.561150
 Conjugate gradient step on ions:
 trial-energy change:   -0.000335  1 .order   -0.000234   -0.000570    0.000103
  (g-gl).g = 0.217E-03      g.g   = 0.283E-03  gl.gl    = 0.527E-02
 g(Force)  = 0.283E-03   g(Stress)= 0.000E+00 ortho     = 0.171E-04
 gamma     =   0.04110
 trial     =   2.01106
 opt step  =   1.70321  (harmonic =   1.70321) maximal distance =0.00191420
 next E    =   -54.691860   (d E  =  -0.00024)

 reached required accuracy - stopping structural energy minimisation