 vasp.6.3.2 27Jun22 (build Aug 17 2022 15:43:34) complex

 executed on           tv2STDVTST date 2025.01.24  20:49:11

 INCAR:
   ISTART = 0
   ICHARG = 2
   IPIPOL = 3
   IVDW = 11
   IDIPOL = 3
   IVDW = 11
   ISPIN = 2
   ENCUT = 400
   PREC = Normal
   EDIFF = 2E-04
   GGA = PE
   ISMEAR = 1
   SIGMA = 0.2
   LREAL = .FALSE.
   ISYM = 1
   NSW = 800
   IBRION = 2
   POTIM = 0.5
   ISIF = 2
   EDIFFG = -.03
   NPAR = 4
   LWAVE = .FALSE.
   LCHARG = .FALSE.

 POTCAR:    PAW_PBE Cu 22Jun2005
|           W    W    AA    RRRRR   N    N  II  N    N   GGGG   !!!           |
|           W    W   A  A   R    R  NN   N  II  NN   N  G    G  !!!           |
|           W    W  A    A  R    R  N N  N  II  N N  N  G       !!!           |
|           W WW W  AAAAAA  RRRRR   N  N N  II  N  N N  G  GGG   !            |
|           WW  WW  A    A  R   R   N   NN  II  N   NN  G    G                |
|           W    W  A    A  R    R  N    N  II  N    N   GGGG   !!!           |
|     You use a magnetic or noncollinear calculation, but did not specify     |
|     the initial magnetic moment with the MAGMOM tag. Note that a            |
|     default of 1 will be used for all atoms. This ferromagnetic setup       |
|     may break the symmetry of the crystal, in particular it may rule        |
|     out finding an antiferromagnetic solution. Thence, we recommend         |
|     setting the initial magnetic moment manually or verifying carefully     |
|     that this magnetic setup is desired.                                    |

   TITEL  = PAW_PBE Cu 22Jun2005
   POMASS =   63.546; ZVAL   =   11.000    mass and valenz
   ENMAX  =  295.446; ENMIN  =  221.585 eV

  PAW_PBE Cu 22Jun2005                  :

 POSCAR: FCC Cu
  positions in cartesian coordinates
 exchange correlation table for  LEXCH =        8
   RHO(1)=    0.500       N(1)  =     2000
   RHO(2)=  100.500       N(2)  =     4000

 VTST: version 4.2, (08/11/21)

 CHAIN: initializing optimizer

 OPT: Using VASP Conjugate-Gradient optimizer
 CHAIN: Read ICHAIN            0

 POSCAR: FCC Cu
  positions in cartesian coordinates

 ion  position               nearest neighbor table
   1  0.000  0.000  0.000-  19 2.57  12 2.57  18 2.57  10 2.57  16 2.57   3 2.57   2 2.57
   2  0.000  0.333  0.000-  20 2.57  10 2.57  16 2.57  11 2.57  17 2.57   1 2.57   3 2.57
   3  0.000  0.667  0.000-  21 2.57  12 2.57  11 2.57  18 2.57  17 2.57   1 2.57   2 2.57
   4  0.333  0.000  0.000-  22 2.57  12 2.57  15 2.57  10 2.57  13 2.57   6 2.57   5 2.57
   5  0.333  0.333  0.000-  23 2.57  10 2.57  13 2.57  11 2.57  14 2.57   4 2.57   6 2.57
   6  0.333  0.667  0.000-  24 2.57  12 2.57  11 2.57  15 2.57  14 2.57   4 2.57   5 2.57
   7  0.667  0.000  0.000-  25 2.57  18 2.57  16 2.57  15 2.57  13 2.57   9 2.57   8 2.57
   8  0.667  0.333  0.000-  26 2.57  16 2.57  17 2.57  13 2.57  14 2.57   7 2.57   9 2.57
   9  0.667  0.667  0.000-  27 2.57  18 2.57  17 2.57  15 2.57  14 2.57   7 2.57   8 2.57
  10  0.167  0.167  0.064-  28 2.57  23 2.57  20 2.57  19 2.57  22 2.57   5 2.57   2 2.57   1 2.57
                             4 2.57  12 2.57  11 2.57
  11  0.167  0.500  0.064-  29 2.57  21 2.57  23 2.57  24 2.57  20 2.57   3 2.57   5 2.57   6 2.57
                             2 2.57  10 2.57  12 2.57
  12  0.167  0.833  0.064-  30 2.57  22 2.57  19 2.57  24 2.57  21 2.57   4 2.57   1 2.57   6 2.57
                             3 2.57  10 2.57  11 2.57
  13  0.500  0.167  0.064-  31 2.57  23 2.57  22 2.57  26 2.57   5 2.57  25 2.57   4 2.57   8 2.57
                             7 2.57  15 2.57  14 2.57
  14  0.500  0.500  0.064-  32 2.57  24 2.57  23 2.57  27 2.57  26 2.57   6 2.57   5 2.57   9 2.57
                             8 2.57  13 2.57  15 2.57
  15  0.500  0.833  0.064-  33 2.57  22 2.57  24 2.57  25 2.57   4 2.57  27 2.57   6 2.57   7 2.57
                             9 2.57  13 2.57  14 2.57
  16  0.833  0.167  0.064-  34 2.57  26 2.57  20 2.57  25 2.57  19 2.57   8 2.57   2 2.57   7 2.57
                             1 2.57  18 2.57  17 2.57
  17  0.833  0.500  0.064-  35 2.57  27 2.57  26 2.57  21 2.57  20 2.57   9 2.57   8 2.57   3 2.57
                             2 2.57  16 2.57  18 2.57
  18  0.833  0.833  0.064-  36 2.57  25 2.57  19 2.57  27 2.57  21 2.57   7 2.57   1 2.57   9 2.57
                             3 2.57  16 2.57  17 2.57
  19  0.000  0.000  0.127-   1 2.57  37 2.57  12 2.57  18 2.57  10 2.57  16 2.57  30 2.57  36 2.57
                            28 2.57  34 2.57  21 2.57  20 2.57
  20  0.000  0.333  0.127-   2 2.57  38 2.57  10 2.57  16 2.57  11 2.57  17 2.57  28 2.57  34 2.57
                            29 2.57  35 2.57  19 2.57  21 2.57
  21  0.000  0.667  0.127-   3 2.57  39 2.57  12 2.57  11 2.57  18 2.57  17 2.57  30 2.57  29 2.57
                            36 2.57  35 2.57  19 2.57  20 2.57
  22  0.333  0.000  0.127-   4 2.57  40 2.57  12 2.57  15 2.57  10 2.57  13 2.57  30 2.57  33 2.57
                            28 2.57  31 2.57  24 2.57  23 2.57
  23  0.333  0.333  0.127-   5 2.57  41 2.57  10 2.57  13 2.57  11 2.57  14 2.57  28 2.57  31 2.57
                            29 2.57  32 2.57  22 2.57  24 2.57
  24  0.333  0.667  0.127-   6 2.57  42 2.57  12 2.57  11 2.57  15 2.57  14 2.57  30 2.57  29 2.57
                            33 2.57  32 2.57  22 2.57  23 2.57
  25  0.667  0.000  0.127-   7 2.57  43 2.57  18 2.57  16 2.57  15 2.57  36 2.57  13 2.57  34 2.57
                            33 2.57  31 2.57  27 2.57  26 2.57
  26  0.667  0.333  0.127-   8 2.57  44 2.57  16 2.57  17 2.57  13 2.57  34 2.57  14 2.57  35 2.57
                            31 2.57  32 2.57  25 2.57  27 2.57
  27  0.667  0.667  0.127-   9 2.57  45 2.57  18 2.57  17 2.57  15 2.57  14 2.57  36 2.57  35 2.57
                            33 2.57  32 2.57  25 2.57  26 2.57
  28  0.167  0.167  0.191-  10 2.57  38 2.57  41 2.57  40 2.57  37 2.57  20 2.57  23 2.57  22 2.57
                            19 2.57  30 2.57  29 2.57
  29  0.167  0.500  0.191-  11 2.57  38 2.57  39 2.57  41 2.57  42 2.57  20 2.57  21 2.57  23 2.57
                            24 2.57  28 2.57  30 2.57
  30  0.167  0.833  0.191-  12 2.57  37 2.57  40 2.57  19 2.57  22 2.57  39 2.57  42 2.57  21 2.57
                            24 2.57  28 2.57  29 2.57
  31  0.500  0.167  0.191-  13 2.57  41 2.57  40 2.57  23 2.57  44 2.57  22 2.57  43 2.57  26 2.57
                            25 2.57  33 2.57  32 2.57
  32  0.500  0.500  0.191-  14 2.57  41 2.57  42 2.57  23 2.57  24 2.57  44 2.57  45 2.57  26 2.57
                            27 2.57  31 2.57  33 2.57
  33  0.500  0.833  0.191-  15 2.57  40 2.57  22 2.57  42 2.57  43 2.57  24 2.57  25 2.57  45 2.57
                            27 2.57  31 2.57  32 2.57
  34  0.833  0.167  0.191-  16 2.57  44 2.57  38 2.57  43 2.57  26 2.57  37 2.57  20 2.57  25 2.57
                            19 2.57  36 2.57  35 2.57
  35  0.833  0.500  0.191-  17 2.57  44 2.57  45 2.57  38 2.57  39 2.57  26 2.57  27 2.57  20 2.57
                            21 2.57  34 2.57  36 2.57
  36  0.833  0.833  0.191-  18 2.57  43 2.57  37 2.57  25 2.57  45 2.57  19 2.57  39 2.57  27 2.57
                            21 2.57  34 2.57  35 2.57
  37  0.000  0.000  0.255-  19 2.57  30 2.57  36 2.57  28 2.57  34 2.57  39 2.57  38 2.57
  38  0.000  0.333  0.255-  20 2.57  28 2.57  34 2.57  29 2.57  35 2.57  37 2.57  39 2.57
  39  0.000  0.667  0.255-  21 2.57  29 2.57  30 2.57  35 2.57  36 2.57  37 2.57  38 2.57
  40  0.333  0.000  0.255-  22 2.57  30 2.57  33 2.57  28 2.57  31 2.57  42 2.57  41 2.57
  41  0.333  0.333  0.255-  23 2.57  28 2.57  31 2.57  29 2.57  32 2.57  40 2.57  42 2.57
  42  0.333  0.667  0.255-  24 2.57  29 2.57  30 2.57  32 2.57  33 2.57  40 2.57  41 2.57
  43  0.667  0.000  0.255-  25 2.57  36 2.57  34 2.57  33 2.57  31 2.57  45 2.57  44 2.57
  44  0.667  0.333  0.255-  26 2.57  34 2.57  35 2.57  31 2.57  32 2.57  43 2.57  45 2.57
  45  0.667  0.667  0.255-  27 2.57  35 2.57  36 2.57  32 2.57  33 2.57  43 2.57  44 2.57

  LATTYP: Found a simple orthorhombic cell.
 ALAT       =     7.7003931999
 B/A-ratio  =     1.4142135422
 C/A-ratio  =     2.6146190821

  Lattice vectors:

 A1 = (   0.0000000000,  -7.7003931999,   0.0000000000)
 A2 = (  10.8900003433,   0.0000000000,   0.0000000000)
 A3 = (   0.0000000000,   0.0000000000,  20.1335950000)

Analysis of symmetry for initial positions (statically):
 Subroutine PRICEL returns following result:

[...]

   9 primitive cells build up your supercell.

 Routine SETGRP: Setting up the symmetry group for a
 simple orthorhombic supercell.

 Subroutine GETGRP returns: Found  8 space group operations
 (whereof  4 operations were pure point group operations)
 out of a pool of  8 trial point group operations.

The static configuration has the point symmetry C_2v.
 The point group associated with its full space group is D_2h.

Analysis of symmetry for dynamics (positions and initial velocities):
 Subroutine PRICEL returns following result:

[...]

The dynamic configuration has the point symmetry C_2v.
 The point group associated with its full space group is D_2h.

Analysis of constrained symmetry for selective dynamics:
 Subroutine PRICEL returns following result:

[...]

The constrained configuration has the point symmetry C_2v.

Analysis of structural, dynamic, and magnetic symmetry:
 Subroutine PRICEL returns following result:

  LATTYP: Found a simple orthorhombic cell.
 ALAT       =     2.5667977330
 B/A-ratio  =     1.4142135422
 C/A-ratio  =     7.8438572472

  Lattice vectors:

 A1 = (   0.0000000000,  -2.5667977330,   0.0000000000)
 A2 = (   3.6300001140,   0.0000000000,   0.0000000000)
 A3 = (   0.0000000000,   0.0000000000,  20.1335950000)

   9 primitive cells build up your supercell.

 Routine SETGRP: Setting up the symmetry group for a
 simple orthorhombic supercell.

 Subroutine GETGRP returns: Found  4 space group operations
 (whereof  4 operations were pure point group operations)
 out of a pool of  8 trial point group operations.

The overall configuration has the point symmetry C_2v.

 Subroutine INISYM returns: Found  4 space group operations
 (whereof  4 operations are pure point group operations),
 and found     9 'primitive' translations

                                     Primitive cell

  volume of cell :     187.5943

  direct lattice vectors                    reciprocal lattice vectors
     0.000000000 -2.566797733  0.000000000     0.000000000 -0.389590495  0.000000000
     3.630000114  0.000000000  0.000000000     0.275482085  0.000000000  0.000000000
     0.000000000  0.000000000 20.133595000     0.000000000  0.000000000  0.049668229

  length of vectors
     2.566797733  3.630000114 20.133595000     0.389590495  0.275482085  0.049668229

  position of ions in fractional coordinates (direct lattice)
     0.000000000  0.000000000  0.000000000
     0.499999999  0.500000000  0.063744146
     0.000000000  0.000000000  0.127488293
     0.499999999  0.500000000  0.191232439
     0.000000000  0.000000000  0.254976586

  ion indices of the primitive-cell ions
   primitive index   ion index
                 1           1
                 2          12
                 3          19
[...]
    310       6.4584      0.00000
    311       6.4673      0.00000
    312       6.4689      0.00000
    313       6.5280      0.00000
    314       6.6362      0.00000
    315       6.6460      0.00000
    316       6.7147      0.00000
    317       6.7769      0.00000
    318       6.8850      0.00000
    319       7.1217      0.00000
    320       7.1510      0.00000
 Fermi energy:        -0.6110134613

 spin component 2

[...]

 k-point     4 :       0.3333    0.3333    0.0000
  band No.  band energies     occupation
      1      -8.7006      1.00000
      2      -8.2814      1.00000
      3      -7.8711      1.00000
      4      -7.4820      1.00000
      5      -6.7588      1.00000
      6      -6.7212      1.00000
      7      -6.3957      1.00000
      8      -6.1240      1.00000
      9      -6.0422      1.00000
     10      -5.8446      1.00000
     11      -5.7376      1.00000
     12      -5.5076      1.00000
     13      -5.4712      1.00000
     14      -5.3817      1.00000
     15      -5.3493      1.00000
     16      -5.2567      1.00000
     17      -5.1763      1.00000
     18      -5.0742      1.00000
     19      -4.9983      1.00000
     20      -4.9780      1.00000
     21      -4.9644      1.00000
     22      -4.9629      1.00000
     23      -4.9112      1.00000
     24      -4.8765      1.00000
     25      -4.8675      1.00000
     26      -4.8516      1.00000
     27      -4.8369      1.00000
     28      -4.7898      1.00000
     29      -4.7704      1.00000
     30      -4.7234      1.00000
     31      -4.6955      1.00000
     32      -4.6809      1.00000
     33      -4.6101      1.00000
     34      -4.6009      1.00000
     35      -4.5407      1.00000
     36      -4.5037      1.00000
     37      -4.4862      1.00000
     38      -4.4836      1.00000
     39      -4.4833      1.00000
     40      -4.4637      1.00000
     41      -4.4341      1.00000
     42      -4.4112      1.00000
     43      -4.3894      1.00000
     44      -4.3718      1.00000
     45      -4.3658      1.00000
     46      -4.3527      1.00000
     47      -4.3459      1.00000
     48      -4.3234      1.00000
     49      -4.3061      1.00000
     50      -4.2876      1.00000
     51      -4.2831      1.00000
     52      -4.1604      1.00000
     53      -4.1166      1.00000
     54      -4.0458      1.00000
     55      -4.0419      1.00000
     56      -4.0404      1.00000
     57      -4.0320      1.00000
     58      -4.0092      1.00000
     59      -3.9829      1.00000
     60      -3.9496      1.00000
[...]
    306       6.0245      0.00000
    307       6.1259      0.00000
    308       6.3767      0.00000
    309       6.4422      0.00000
    310       6.4583      0.00000
    311       6.4673      0.00000
    312       6.4689      0.00000
    313       6.5279      0.00000
    314       6.6361      0.00000
    315       6.6460      0.00000
    316       6.7147      0.00000
    317       6.7768      0.00000
    318       6.8849      0.00000
    319       7.1217      0.00000
    320       7.1492      0.00000

[...]

 soft charge-density along one line, spin component           2
         0         1         2         3         4         5         6         7         8         9
 total charge-density along one line

------------------------ aborting loop because EDIFF is reached ----------------------------------------

 DIPCOR: dipole corrections for dipol
 direction  3 min pos   118,
 dipolmoment           0.000000      0.000000      0.051661 electrons x Angstroem
 Tr[quadrupol]     -7496.295043

 energy correction for charged system         0.000000 eV
 dipol+quadrupol energy correction            0.000143 eV
 added-field ion interaction          0.000000 eV  (added to PSCEN)

  *************** adding dipol energy to TOTEN NOW ****************

         DFTD3 V3.0 Rev 1
 Edisp (eV)  -13.76181

 E6    (eV) :    -5.2478
 E8    (eV) :    -8.5140
 % E8        : 61.87

  FORCE on cell =-STRESS in cart. coord.  units (eV):
  Direction    XX          YY          ZZ          XY          YZ          ZX
  Alpha Z   877.15254   877.15254   877.15254
  Ewald  196707.34521198301.54308************    -0.00000     0.00000    -0.00000
  Hartree213189.92842214272.63271************     0.00000     0.00000    -0.00000
  E(xc)   -2889.28796 -2887.60391 -2894.02499    -0.00000    -0.00000     0.00000
  Local  ************************426880.79072    -0.00000    -0.00000     0.00000
  n-local -1005.47508  -993.48837 -1010.73895     0.29929    -0.00000    -0.00000
  augment  4249.84603  4243.86533  4265.29961    -0.00000     0.00000     0.00000
  Kinetic  4031.94171  4022.44074  4056.38384     3.09738     0.00000     0.00000
  Fock        0.00000     0.00000     0.00000     0.00000     0.00000     0.00000
  vdW       -16.83972   -17.66506    -7.87046     0.00000     0.00000    -0.00000
  Total     -34.52105   -32.86692    -9.87173     0.00000     0.00000     0.00000
  in kB     -32.75914   -31.18943    -9.36789     0.00000     0.00000     0.00000

 VOLUME and BASIS-vectors are now :
  energy-cutoff  :      400.00
  volume of cell :     1688.35
      direct lattice vectors                 reciprocal lattice vectors
    10.890000343  0.000000000  0.000000000     0.091827362  0.000000000  0.000000000
     0.000000000  7.700393200  0.000000000     0.000000000  0.129863498  0.000000000
     0.000000000  0.000000000 20.133595000     0.000000000  0.000000000  0.049668229

  length of vectors
    10.890000343  7.700393200 20.133595000     0.091827362  0.129863498  0.049668229

 FORCES acting on ions
    electron-ion (+dipol)            ewald-force                    non-local-force                 convergence-correction
   -.308E-14 0.784E-13 0.302E+04   -.185E-06 0.875E-09 -.301E+04   0.926E-22 0.000E+00 -.538E+01   0.490E-10 0.778E-10 0.313E-01
   0.350E-16 -.382E-04 0.302E+04   -.185E-06 0.436E-06 -.301E+04   -.529E-22 -.150E-20 -.538E+01   0.499E-10 -.239E-08 0.313E-01
   -.646E-14 0.378E-04 0.302E+04   -.185E-06 -.360E-06 -.301E+04   -.265E-22 0.000E+00 -.538E+01   0.503E-10 0.234E-08 0.313E-01
   0.176E-05 0.196E-13 0.302E+04   0.278E-06 0.875E-09 -.301E+04   0.000E+00 0.000E+00 -.538E+01   -.414E-11 0.770E-10 0.313E-01
   0.176E-05 -.382E-04 0.302E+04   0.278E-06 0.436E-06 -.301E+04   0.662E-23 0.246E-20 -.538E+01   -.498E-11 -.239E-08 0.313E-01
   0.176E-05 0.378E-04 0.302E+04   0.278E-06 -.360E-06 -.301E+04   0.662E-23 0.000E+00 -.538E+01   -.464E-11 0.234E-08 0.313E-01
   -.542E-06 0.109E-12 0.302E+04   -.295E-06 0.875E-09 -.301E+04   0.529E-22 0.000E+00 -.538E+01   -.849E-10 0.775E-10 0.313E-01
   -.542E-06 -.382E-04 0.302E+04   -.295E-06 0.436E-06 -.301E+04   -.794E-22 0.285E-20 -.538E+01   -.850E-10 -.239E-08 0.313E-01
   -.542E-06 0.378E-04 0.302E+04   -.295E-06 -.360E-06 -.301E+04   -.794E-22 0.000E+00 -.538E+01   -.857E-10 0.234E-08 0.313E-01
   0.805E-06 0.479E-04 0.164E+04   0.205E-07 0.101E-06 -.164E+04   0.397E-22 0.000E+00 0.127E+00   -.463E-10 0.101E-07 0.948E-01
   0.805E-06 -.188E-06 0.164E+04   0.205E-07 0.299E-06 -.164E+04   0.463E-22 0.000E+00 0.127E+00   -.458E-10 -.179E-09 0.948E-01
   0.805E-06 -.520E-04 0.164E+04   0.205E-07 -.562E-06 -.164E+04   0.596E-22 0.219E-19 0.127E+00   -.458E-10 -.947E-08 0.948E-01
   0.241E-05 0.479E-04 0.164E+04   0.569E-06 0.101E-06 -.164E+04   -.265E-22 0.000E+00 0.127E+00   -.576E-09 0.101E-07 0.948E-01
   0.241E-05 -.188E-06 0.164E+04   0.569E-06 0.299E-06 -.164E+04   -.529E-22 0.000E+00 0.127E+00   -.576E-09 -.179E-09 0.948E-01
   0.241E-05 -.520E-04 0.164E+04   0.569E-06 -.562E-06 -.164E+04   0.000E+00 -.245E-19 0.127E+00   -.576E-09 -.947E-08 0.948E-01
   0.309E-06 0.479E-04 0.164E+04   -.175E-06 0.101E-06 -.164E+04   0.662E-22 0.000E+00 0.127E+00   0.856E-10 0.101E-07 0.948E-01
   0.309E-06 -.188E-06 0.164E+04   -.175E-06 0.299E-06 -.164E+04   0.662E-22 0.000E+00 0.127E+00   0.856E-10 -.179E-09 0.948E-01
   0.309E-06 -.520E-04 0.164E+04   -.175E-06 -.562E-06 -.164E+04   0.529E-22 0.834E-20 0.127E+00   0.853E-10 -.947E-08 0.948E-01
   -.320E-13 0.927E-13 0.349E+02   -.275E-06 -.120E-09 -.351E+02   0.529E-22 0.000E+00 0.172E+00   0.195E-09 0.550E-10 0.108E+00
   -.319E-13 -.482E-04 0.349E+02   -.275E-06 0.572E-06 -.351E+02   -.265E-22 -.136E-19 0.172E+00   0.195E-09 -.132E-08 0.108E+00
   -.285E-13 0.479E-04 0.349E+02   -.275E-06 -.417E-06 -.351E+02   -.159E-21 0.000E+00 0.172E+00   0.195E-09 0.115E-08 0.108E+00
   0.165E-05 0.908E-13 0.349E+02   0.350E-06 -.120E-09 -.351E+02   -.529E-22 0.000E+00 0.172E+00   -.345E-11 0.546E-10 0.108E+00
   0.165E-05 -.482E-04 0.349E+02   0.350E-06 0.572E-06 -.351E+02   0.794E-22 -.206E-19 0.172E+00   -.384E-11 -.132E-08 0.108E+00
   0.165E-05 0.479E-04 0.349E+02   0.350E-06 -.417E-06 -.351E+02   0.794E-22 0.000E+00 0.172E+00   -.365E-11 0.115E-08 0.108E+00
   -.507E-06 0.901E-13 0.349E+02   -.474E-06 -.120E-09 -.351E+02   -.232E-22 0.000E+00 0.172E+00   0.253E-09 0.547E-10 0.108E+00
   -.507E-06 -.482E-04 0.349E+02   -.474E-06 0.572E-06 -.351E+02   0.397E-22 -.853E-20 0.172E+00   0.253E-09 -.132E-08 0.108E+00
   -.507E-06 0.479E-04 0.349E+02   -.474E-06 -.417E-06 -.351E+02   0.529E-22 0.000E+00 0.172E+00   0.253E-09 0.115E-08 0.108E+00
   0.800E-06 0.463E-04 -.169E+04   0.198E-07 0.977E-07 0.169E+04   0.000E+00 0.000E+00 -.120E+01   0.126E-09 0.391E-08 0.234E+00
   0.800E-06 -.187E-06 -.169E+04   0.198E-07 0.300E-06 0.169E+04   0.847E-21 0.000E+00 -.120E+01   0.125E-09 -.174E-10 0.234E+00
   0.800E-06 -.505E-04 -.169E+04   0.198E-07 -.565E-06 0.169E+04   0.635E-21 -.152E-19 -.120E+01   0.126E-09 -.443E-08 0.234E+00
   0.240E-05 0.463E-04 -.169E+04   0.579E-06 0.977E-07 0.169E+04   0.582E-21 0.000E+00 -.120E+01   0.340E-09 0.391E-08 0.234E+00
   0.240E-05 -.187E-06 -.169E+04   0.579E-06 0.300E-06 0.169E+04   -.159E-21 0.000E+00 -.120E+01   0.340E-09 -.175E-10 0.234E+00
   0.240E-05 -.505E-04 -.169E+04   0.579E-06 -.565E-06 0.169E+04   -.212E-21 -.138E-19 -.120E+01   0.339E-09 -.443E-08 0.234E+00
   0.307E-06 0.463E-04 -.169E+04   -.171E-06 0.977E-07 0.169E+04   -.212E-21 0.000E+00 -.120E+01   0.128E-09 0.391E-08 0.234E+00
   0.307E-06 -.188E-06 -.169E+04   -.171E-06 0.300E-06 0.169E+04   -.106E-21 0.000E+00 -.120E+01   0.129E-09 -.174E-10 0.234E+00
   0.307E-06 -.505E-04 -.169E+04   -.171E-06 -.565E-06 0.169E+04   -.159E-21 -.181E-19 -.120E+01   0.128E-09 -.443E-08 0.234E+00
   -.207E-13 0.660E-13 -.300E+04   -.197E-06 0.620E-08 0.300E+04   0.212E-21 0.000E+00 0.520E+01   -.933E-10 -.636E-10 0.153E+00
   -.147E-13 -.490E-04 -.300E+04   -.197E-06 0.453E-06 0.300E+04   -.159E-21 -.785E-20 0.520E+01   -.941E-10 -.430E-08 0.153E+00
   -.187E-13 0.486E-04 -.300E+04   -.197E-06 -.363E-06 0.300E+04   0.212E-21 0.000E+00 0.520E+01   -.944E-10 0.445E-08 0.153E+00
   0.174E-05 0.517E-13 -.300E+04   0.282E-06 0.620E-08 0.300E+04   0.132E-21 0.000E+00 0.520E+01   -.213E-09 -.633E-10 0.153E+00
   0.174E-05 -.490E-04 -.300E+04   0.282E-06 0.453E-06 0.300E+04   -.424E-21 0.939E-20 0.520E+01   -.213E-09 -.430E-08 0.153E+00
   0.174E-05 0.486E-04 -.300E+04   0.282E-06 -.363E-06 0.300E+04   -.529E-21 0.000E+00 0.520E+01   -.213E-09 0.445E-08 0.153E+00
   -.534E-06 0.233E-13 -.300E+04   -.326E-06 0.620E-08 0.300E+04   -.424E-21 0.000E+00 0.520E+01   -.800E-10 -.633E-10 0.153E+00
   -.534E-06 -.490E-04 -.300E+04   -.326E-06 0.453E-06 0.300E+04   -.476E-21 -.542E-20 0.520E+01   -.792E-10 -.430E-08 0.153E+00
   -.534E-06 0.486E-04 -.300E+04   -.326E-06 -.363E-06 0.300E+04   0.106E-21 0.000E+00 0.520E+01   -.787E-10 0.445E-08 0.153E+00
   0.318E-04 -.293E-04 0.410E+01   0.391E-12 -.631E-13 -.309E-10   0.835E-22 -.841E-19 -.969E+01   0.226E-09 -.365E-09 0.559E+01

 POSITION                                       TOTAL-FORCE (eV/Angst)
      0.00000      0.00000      0.00000        -0.000000     -0.000000      0.429778
      0.00000      2.56680      0.00000         0.000000     -0.000000      0.429778
      0.00000      5.13360      0.00000        -0.000000     -0.000000      0.429778
      3.63000      0.00000      0.00000         0.000000     -0.000000      0.429778
      3.63000      2.56680      0.00000         0.000000     -0.000000      0.429778
      3.63000      5.13360      0.00000         0.000000     -0.000000      0.429778
      7.26000      0.00000      0.00000         0.000000     -0.000000      0.429778
      7.26000      2.56680      0.00000         0.000000     -0.000000      0.429778
      7.26000      5.13360      0.00000        -0.000000     -0.000000      0.429778
      1.81500      1.28340      1.28340        -0.000000     -0.000000     -0.407099
      1.81500      3.85020      1.28340        -0.000000     -0.000000     -0.407099
      1.81500      6.41699      1.28340        -0.000000     -0.000000     -0.407099
      5.44500      1.28340      1.28340        -0.000000     -0.000000     -0.407099
      5.44500      3.85020      1.28340         0.000000      0.000000     -0.407099
      5.44500      6.41699      1.28340         0.000000      0.000000     -0.407099
      9.07500      1.28340      1.28340        -0.000000     -0.000000     -0.407099
      9.07500      3.85020      1.28340        -0.000000     -0.000000     -0.407099
      9.07500      6.41699      1.28340        -0.000000      0.000000     -0.407099
      0.00000      0.00000      2.51492        -0.000000     -0.000000      0.009016
     -0.00000      2.56680      2.51492         0.000000     -0.000000      0.009016
     -0.00000      5.13360      2.51492         0.000000     -0.000000      0.009016
      3.63000      0.00000      2.51492        -0.000000     -0.000000      0.009016
      3.63000      2.56680      2.51492         0.000000      0.000000      0.009016
      3.63000      5.13360      2.51492         0.000000     -0.000000      0.009016
      7.26000      0.00000      2.51492        -0.000000     -0.000000      0.009016
      7.26000      2.56680      2.51492         0.000000     -0.000000      0.009016
      7.26000      5.13360      2.51492        -0.000000     -0.000000      0.009016
      1.81500      1.28340      3.84175         0.000000     -0.000000     -0.023918
      1.81500      3.85020      3.84175        -0.000000     -0.000000     -0.023918
      1.81500      6.41699      3.84175         0.000000      0.000000     -0.023918
      5.44500      1.28340      3.84175         0.000000     -0.000000     -0.023918
      5.44500      3.85020      3.84175         0.000000     -0.000000     -0.023918
      5.44500      6.41699      3.84175         0.000000      0.000000     -0.023918
      9.07500      1.28340      3.84175        -0.000000     -0.000000     -0.023918
      9.07500      3.85020      3.84175        -0.000000      0.000000     -0.023918
      9.07500      6.41699      3.84175         0.000000      0.000000     -0.023918
     -0.00000      0.00000      4.97866        -0.000000     -0.000000     -0.007777
      0.00000      2.56680      4.97866         0.000000     -0.000000     -0.007777
      0.00000      5.13360      4.97866        -0.000000     -0.000000     -0.007777
      3.63000      0.00000      4.97866         0.000000     -0.000000     -0.007777
      3.63000      2.56680      4.97866         0.000000      0.000000     -0.007777
      3.63000      5.13360      4.97866         0.000000     -0.000000     -0.007777
      7.26000      0.00000      4.97866         0.000000     -0.000000     -0.007777
      7.26000      2.56680      4.97866        -0.000000      0.000000     -0.007777
      7.26000      5.13360      4.97866         0.000000     -0.000000     -0.007777
    total drift:                                0.000032     -0.000029     -0.003154

  FREE ENERGIE OF THE ION-ELECTRON SYSTEM (eV)
  free  energy   TOTEN  =      -165.60906683 eV

  energy  without entropy=     -165.63112308  energy(sigma->0) =     -165.61641891

 d Force = 0.1654923E-01[ 0.565E-02, 0.274E-01]  d Energy = 0.1673823E-01-0.189E-03
 d Force =-0.7014584E+03[-0.702E+03,-0.701E+03]  d Ewald  =-0.7014615E+03 0.310E-02

 stress matrix after NEB project (eV)
    -34.52105      0.00000      0.00000
      0.00000    -32.86692      0.00000
      0.00000      0.00000     -9.87173
  FORCES: max atom, RMS     0.023918    0.011948
  FORCE total and by dimension    0.080153    0.023918
  Stress total and by dimension   48.676364   34.521049
 Conjugate gradient step on ions:
 trial-energy change:   -0.016738  1 .order   -0.016549   -0.027446   -0.005652
  (g-gl).g = 0.804E-02      g.g   = 0.910E-02  gl.gl    = 0.164E-01
 g(Force)  = 0.910E-02   g(Stress)= 0.000E+00 ortho     = 0.955E-03
 gamma     =   0.49066
 trial     =   2.86964
 opt step  =   3.61392  (harmonic =   3.61392) maximal distance =0.00419079
 next E    =  -165.609611   (d E  =  -0.01728)

 reached required accuracy - stopping structural energy minimisation