 vasp.6.3.2 27Jun22 (build Aug 17 2022 15:43:34) complex

 executed on           tv2STDVTST date 2025.02.04  14:05:28

 INCAR:
   ISTART = 0
   ICHARG = 2
   IPIPOL = 3
   IVDW = 11
   ISPIN = 2
   ENCUT = 400
   PREC = Normal
   EDIFF = 2E-04
   GGA = PE
   ISMEAR = 1
   SIGMA = 0.2
   LREAL = .FALSE.
   ISYM = 1
   NSW = 800
   IBRION = 2
   POTIM = 0.5
   ISIF = 2
   EDIFFG = -.03
   NPAR = 4
   LWAVE = .FALSE.
   LCHARG = .FALSE.

 POTCAR:    PAW_PBE Cu 22Jun2005
 POTCAR:    PAW_PBE H 15Jun2001
|           W    W    AA    RRRRR   N    N  II  N    N   GGGG   !!!           |
|           W    W   A  A   R    R  NN   N  II  NN   N  G    G  !!!           |
|           W    W  A    A  R    R  N N  N  II  N N  N  G       !!!           |
|           W WW W  AAAAAA  RRRRR   N  N N  II  N  N N  G  GGG   !            |
|           WW  WW  A    A  R   R   N   NN  II  N   NN  G    G                |
|           W    W  A    A  R    R  N    N  II  N    N   GGGG   !!!           |
|     You use a magnetic or noncollinear calculation, but did not specify     |
|     the initial magnetic moment with the MAGMOM tag. Note that a            |
|     default of 1 will be used for all atoms. This ferromagnetic setup       |
|     may break the symmetry of the crystal, in particular it may rule        |
|     out finding an antiferromagnetic solution. Thence, we recommend         |
|     setting the initial magnetic moment manually or verifying carefully     |
|     that this magnetic setup is desired.                                    |

   TITEL  = PAW_PBE Cu 22Jun2005
   POMASS =   63.546; ZVAL   =   11.000    mass and valenz
   ENMAX  =  295.446; ENMIN  =  221.585 eV

   TITEL  = PAW_PBE H 15Jun2001
   POMASS =    1.000; ZVAL   =    1.000    mass and valenz
   ENMAX  =  250.000; ENMIN  =  200.000 eV

  PAW_PBE Cu 22Jun2005                  :
  PAW_PBE H 15Jun2001                   :

 POSCAR: FCC Cu
  positions in cartesian coordinates
 exchange correlation table for  LEXCH =        8
   RHO(1)=    0.500       N(1)  =     2000
   RHO(2)=  100.500       N(2)  =     4000

 VTST: version 4.2, (08/11/21)

 CHAIN: initializing optimizer

 OPT: Using VASP Conjugate-Gradient optimizer
 CHAIN: Read ICHAIN            0

 POSCAR: FCC Cu
  positions in cartesian coordinates

 ion  position               nearest neighbor table
   1  0.000  0.000  0.000-   2 2.57   2 2.57   2 2.57
   2  0.333  0.333  0.071-   3 2.51   3 2.51   3 2.51   1 2.57   1 2.57   1 2.57
   3  0.667  0.667  0.139-   2 2.51   2 2.51   2 2.51   4 2.53   4 2.53   4 2.53
   4  0.000  0.000  0.208-   5 2.51   5 2.51   5 2.51   3 2.53   3 2.53   3 2.53
   5  0.333  0.333  0.277-   4 2.51   4 2.51   4 2.51   6 2.53   6 2.53   6 2.53
   6  0.667  0.667  0.346-   7 2.51   7 2.51   7 2.51   5 2.53   5 2.53   5 2.53
   7  0.000  0.000  0.414-   8 2.49   8 2.49   8 2.49   6 2.51   6 2.51   6 2.51
   8  0.333  0.333  0.481-   7 2.49   7 2.49   7 2.49
   9  0.833  0.333  0.534-  10 0.75
  10  0.833  0.333  0.559-   9 0.75

  LATTYP: Found a hexagonal cell.
 ALAT       =     2.5667977333
 C/A-ratio  =    11.5593335643

  Lattice vectors:

 A1 = (  -1.2833988667,  -2.2229120434,   0.0000000000)
 A2 = (   2.5667977333,   0.0000000000,   0.0000000000)
 A3 = (   0.0000000000,   0.0000000000,  29.6704711914)

Analysis of symmetry for initial positions (statically):
 Subroutine PRICEL returns:
 Original cell was already a primitive cell.

 Routine SETGRP: Setting up the symmetry group for a
 hexagonal supercell.

 Subroutine GETGRP returns: Found  2 space group operations
 (whereof  2 operations were pure point group operations)
 out of a pool of 24 trial point group operations.

The static configuration has the point symmetry C_1h.

Analysis of symmetry for dynamics (positions and initial velocities):
 Subroutine PRICEL returns:
 Original cell was already a primitive cell.

[...]

The dynamic configuration has the point symmetry C_1h.

Analysis of structural, dynamic, and magnetic symmetry:
 Subroutine PRICEL returns:
 Original cell was already a primitive cell.

 Routine SETGRP: Setting up the symmetry group for a
 hexagonal supercell.

 Subroutine GETGRP returns: Found  2 space group operations
 (whereof  2 operations were pure point group operations)
 out of a pool of 24 trial point group operations.

The overall configuration has the point symmetry C_1h.

 Subroutine INISYM returns: Found  2 space group operations
 (whereof  2 operations are pure point group operations),
 and found     1 'primitive' translations

                                     Primitive cell

  volume of cell :     169.2928

  direct lattice vectors                    reciprocal lattice vectors
     2.566797733  0.000000000  0.000000000     0.389590495 -0.224930177  0.000000000
     1.283398867  2.222912043  0.000000000     0.000000000  0.449860355  0.000000000
     0.000000000  0.000000000 29.670471191     0.000000000  0.000000000  0.033703543

  length of vectors
     2.566797733  2.566797733 29.670471191     0.449860355  0.449860355  0.033703543

  position of ions in fractional coordinates (direct lattice)
     0.000000000  0.000000000  0.000000000
     0.333333333  0.333333333  0.070635264
     0.666666667  0.666666667  0.139085938
     0.000000000  0.000000000  0.208165116
     0.333333333  0.333333333  0.276562395
     0.666666667  0.666666667  0.345560339
     0.000000000  0.000000000  0.414005934
     0.333333333  0.333333333  0.481392695
     0.833333334  0.333333333  0.534259303
     0.833333334  0.333333333  0.559402146

  ion indices of the primitive-cell ions
   primitive index   ion index
                 1           1
                 2           2
                 3           3
                 4           4
                 5           5
                 6           6
                 7           7
                 8           8
                 9           9
                10          10

 KPOINTS: Auto-mesh

Automatic generation of k-mesh.
 Grid dimensions read from file:
 generate k-points for:    3    3    1

 Generating k-lattice:

  Cartesian coordinates                     Fractional coordinates (reciprocal lattice)
     0.129863498 -0.074976726  0.000000000     0.333333333  0.000000000  0.000000000
     0.000000000  0.149953452  0.000000000     0.000000000  0.333333333  0.000000000
     0.000000000  0.000000000  0.033703543     0.000000000  0.000000000  1.000000000

  Length of vectors
     0.149953452  0.149953452  0.033703543

  Shift w.r.t. Gamma in fractional coordinates (k-lattice)
     0.000000000  0.000000000  0.000000000

 Subroutine IBZKPT returns following result:

 Found      4 irreducible k-points:

 Following reciprocal coordinates:
            Coordinates               Weight
  0.000000  0.000000  0.000000      1.000000
  0.333333  0.000000  0.000000      4.000000
  0.000000  0.333333  0.000000      2.000000
 -0.333333  0.333333  0.000000      2.000000

 Following cartesian coordinates:
            Coordinates               Weight
  0.000000  0.000000  0.000000      1.000000
  0.129863 -0.074977  0.000000      4.000000
  0.000000  0.149953  0.000000      2.000000
 -0.129863  0.224930  0.000000      2.000000

 SYSTEM =  unknown system
 POSCAR =  FCC Cu

 Startparameter for this run:
   NWRITE =      2    write-flag & timer
   PREC   = normal    normal or accurate (medium, high low for compatibility)
   ISTART =      0    job   : 0-new  1-cont  2-samecut
   ICHARG =      2    charge: 1-file 2-atom 10-const
   ISPIN  =      2    spin polarized calculation?
   LNONCOLLINEAR =      F non collinear calculations
   LSORBIT =      F    spin-orbit coupling
   INIWAV =      1    electr: 0-lowe 1-rand  2-diag
   LASPH  =      F    aspherical Exc in radial PAW
 Electronic Relaxation 1
   ENCUT  =  400.0 eV  29.40 Ry    5.42 a.u.   4.19  4.19 48.39*2*pi/ulx,y,z
   ENINI  =  400.0     initial cutoff
   ENAUG  =  587.0 eV  augmentation charge cutoff
   NELM   =     60;   NELMIN=  2; NELMDL= -5     # of ELM steps
   EDIFF  = 0.2E-03   stopping-criterion for ELM
   LREAL  =      F    real-space projection
   NLSPLINE    = F    spline interpolate recip. space projectors
   LCOMPAT=      F    compatible to vasp.4.4
   GGA_COMPAT  = T    GGA compatible to vasp.4.4-vasp.4.6
   LMAXPAW     = -100 max onsite density
   LMAXMIX     =    2 max onsite mixed and CHGCAR
   VOSKOWN=      0    Vosko Wilk Nusair interpolation
   ROPT   =    0.00000   0.00000
 Ionic relaxation
   EDIFFG = -.3E-01   stopping-criterion for IOM
   NSW    =    800    number of steps for IOM
   NBLOCK =      1;   KBLOCK =    800    inner block; outer block
   IBRION =      2    ionic relax: 0-MD 1-quasi-New 2-CG
   NFREE  =      1    steps in history (QN), initial steepest desc. (CG)
   ISIF   =      2    stress and relaxation
   IWAVPR =     11    prediction:  0-non 1-charg 2-wave 3-comb
   ISYM   =      1    0-nonsym 1-usesym 2-fastsym
   LCORR  =      T    Harris-Foulkes like correction to forces

   POTIM  = 0.5000    time-step for ionic-motion
   TEIN   =    0.0    initial temperature
   TEBEG  =    0.0;   TEEND  =   0.0 temperature during run
   SMASS  =  -3.00    Nose mass-parameter (am)
   estimated Nose-frequenzy (Omega)   =  0.10E-29 period in steps = 0.13E+47 mass=  -0.151E-27a.u.
   SCALEE = 1.0000    scale energy and forces
   NPACO  =    256;   APACO  = 10.0  distance and # of slots for P.C.
   PSTRESS=    0.0 pullay stress

  Mass of Ions in am
   POMASS =  63.55  1.00
  Ionic Valenz
   ZVAL   =  11.00  1.00
  Atomic Wigner-Seitz radii
  virtual crystal weights
   VCA    =   1.00  1.00
   NELECT =      90.0000    total number of electrons
   NUPDOWN=      -1.0000    fix difference up-down

 DOS related values:
   EMIN   =  10.00;   EMAX   =-10.00  energy-range for DOS
   EFERMI =   0.00
   ISMEAR =     1;   SIGMA  =   0.20  broadening in eV -4-tet -1-fermi 0-gaus

 Electronic relaxation 2 (details)
   IALGO  =     38    algorithm
   LDIAG  =      T    sub-space diagonalisation (order eigenvalues)
   LSUBROT=      F    optimize rotation matrix (better conditioning)
   TURBO    =      0    0=normal 1=particle mesh
   IRESTART =      0    0=no restart 2=restart with 2 vectors
   NREBOOT  =      0    no. of reboots
   NMIN     =      0    reboot dimension
   EREF     =   0.00    reference energy to select bands
   IMIX   =      4    mixing-type and parameters
     AMIX     =   0.40;   BMIX     =  1.00
     AMIX_MAG =   1.60;   BMIX_MAG =  1.00
     AMIN     =   0.10
     WC   =   100.;   INIMIX=   1;  MIXPRE=   1;  MAXMIX= -45

 Intra band minimization:
   WEIMIN = 0.0010     energy-eigenvalue tresh-hold
   EBREAK =  0.83E-06  absolut break condition
   DEPER  =   0.30     relativ break condition

   TIME   =   0.40     timestep for ELM

  volume/ion in A,a.u.               =      16.93       114.24
  Fermi-wavevector in a.u.,A,eV,Ry     =   1.326202  2.506158 23.930072  1.758811
  Thomas-Fermi vector in A             =   2.455606

 Write flags
   LWAVE        =      F    write WAVECAR
   LDOWNSAMPLE  =      F    k-point downsampling of WAVECAR
   LCHARG       =      F    write CHGCAR
   LVTOT        =      F    write LOCPOT, total local potential
[...]
  (g-gl).g = 0.228E-01      g.g   = 0.273E-01  gl.gl    = 0.210E-01
 g(Force)  = 0.273E-01   g(Stress)= 0.000E+00 ortho     = 0.445E-02
 gamma     =   1.08448
 trial     =   0.55541
 opt step  =   0.89212  (harmonic =   0.89212) maximal distance =0.03675747
 next E    =   -40.822403   (d E  =  -0.01434)

[...]

 d Force =-0.5069538E-02[-0.278E-01, 0.177E-01]  d Energy =-0.4504452E-02-0.565E-03
 d Force =-0.7633697E+03[-0.769E+03,-0.758E+03]  d Ewald  =-0.7633686E+03-0.107E-02

[...]

 d Force = 0.7974162E-02[-0.106E-02, 0.170E-01]  d Energy = 0.8084198E-02-0.110E-03
 d Force = 0.4680928E+03[ 0.466E+03, 0.470E+03]  d Ewald  = 0.4680926E+03 0.199E-03

[...]

 d Force = 0.3689209E-02[ 0.215E-03, 0.716E-02]  d Energy = 0.3530482E-02 0.159E-03
 d Force =-0.2160214E+03[-0.217E+03,-0.215E+03]  d Ewald  =-0.2160215E+03 0.609E-04

[...]

 d Force =-0.1457245E-04[-0.157E-02, 0.154E-02]  d Energy =-0.1949312E-04 0.492E-05
 d Force = 0.4054982E+03[ 0.405E+03, 0.406E+03]  d Ewald  = 0.4054983E+03-0.476E-04

[...]

 d Force =-0.8838362E-04[-0.423E-03, 0.246E-03]  d Energy = 0.2058053E-04-0.109E-03
 d Force = 0.1022800E+03[ 0.102E+03, 0.102E+03]  d Ewald  = 0.1022800E+03-0.677E-06

[...]

 d Force = 0.1730878E-03[ 0.790E-04, 0.267E-03]  d Energy =-0.1748838E-04 0.191E-03
 d Force =-0.6465486E+02[-0.647E+02,-0.646E+02]  d Ewald  =-0.6465486E+02 0.171E-06

[...]

 stress matrix after NEB project (eV)
     -4.22254     -0.00000      0.00000
     -0.00000     -4.25263      0.00369
      0.00000      0.00369     -0.07716
  FORCES: max atom, RMS     0.073411    0.035109
  FORCE total and by dimension    0.111024    0.073409
  Stress total and by dimension    5.993391    4.252633
 Conjugate gradient step on ions:
 trial-energy change:   -0.000532  1 .order   -0.000556   -0.000942   -0.000170
  (g-gl).g = 0.113E-02      g.g   = 0.129E-02  gl.gl    = 0.471E-02
 g(Force)  = 0.129E-02   g(Stress)= 0.000E+00 ortho     = 0.107E-03
 gamma     =   0.23971
 trial     =   0.71597
 opt step  =   0.87404  (harmonic =   0.87404) maximal distance =0.00491751
 next E    =   -40.878720   (d E  =  -0.00057)

[...]

 d Force = 0.2634479E-05[-0.102E-05, 0.629E-05]  d Energy =-0.5760915E-04 0.602E-04
 d Force =-0.9792785E-01[-0.979E-01,-0.979E-01]  d Ewald  =-0.9792785E-01 0.306E-09

[...]

 d Force = 0.3124286E-07[-0.133E-07, 0.757E-07]  d Energy =-0.3354171E-06 0.367E-06
 d Force = 0.1435424E-01[ 0.144E-01, 0.144E-01]  d Ewald  = 0.1435424E-01-0.138E-09

[...]

 stress matrix after NEB project (eV)
     -4.28153     -0.00000      0.00000
     -0.00000     -4.31066      0.00432
      0.00000      0.00432     -0.19086
  FORCES: max atom, RMS     0.044198    0.017031
  FORCE total and by dimension    0.053856    0.044195
  Stress total and by dimension    6.078633    4.310661
 Conjugate gradient step on ions:
 trial-energy change:   -0.000062  1 .order   -0.000060   -0.000194    0.000074
  (g-gl).g =-0.507E-04      g.g   = 0.307E-03  gl.gl    = 0.907E-03
 g(Force)  = 0.307E-03   g(Stress)= 0.000E+00 ortho     =-0.111E-04
 gamma     =  -0.05593
 trial     =   0.62959
 opt step  =   0.45636  (harmonic =   0.45636) maximal distance =0.00123182
 next E    =   -40.879177   (d E  =  -0.00007)

[...]

 eigenvalues of (default mixing * dielectric matrix)
  average eigenvalue GAMMA=   0.5171
  0.8466  0.1875

[...]

 d Force =-0.2581673E-04[-0.719E-04, 0.202E-04]  d Energy =-0.1455046E-04-0.113E-04
 d Force = 0.1715169E+00[ 0.171E+00, 0.172E+00]  d Ewald  = 0.1715169E+00-0.658E-08

[...]

 d Force = 0.1130952E-04[-0.335E-04, 0.561E-04]  d Energy = 0.2244819E-04-0.111E-04
 d Force =-0.1338251E+00[-0.134E+00,-0.134E+00]  d Ewald  =-0.1338251E+00 0.284E-08

[...]

 d Force = 0.2909697E-05[-0.121E-05, 0.703E-05]  d Energy =-0.2972959E-04 0.326E-04
 d Force =-0.3154822E-01[-0.316E-01,-0.315E-01]  d Ewald  =-0.3154822E-01 0.226E-09

[...]

 d Force = 0.1229311E-06[ 0.671E-07, 0.179E-06]  d Energy =-0.1333821E-05 0.146E-05
 d Force = 0.4645135E-02[ 0.465E-02, 0.465E-02]  d Ewald  = 0.4645135E-02-0.196E-09

[...]

 d Force = 0.4299812E-04[ 0.169E-04, 0.691E-04]  d Energy = 0.4756337E-04-0.457E-05
 d Force = 0.1283279E+00[ 0.127E+00, 0.129E+00]  d Ewald  = 0.1283279E+00 0.172E-07

 stress matrix after NEB project (eV)
     -4.36631     -0.00000      0.00000
     -0.00000     -4.39591      0.00411
      0.00000      0.00411     -0.27292
  FORCES: max atom, RMS     0.032404    0.012482
  FORCE total and by dimension    0.039473    0.032399
  Stress total and by dimension    6.201873    4.395908
 Conjugate gradient step on ions:
 trial-energy change:   -0.000048  1 .order   -0.000043   -0.000069   -0.000017
  (g-gl).g = 0.124E-03      g.g   = 0.118E-03  gl.gl    = 0.307E-03
 g(Force)  = 0.118E-03   g(Stress)= 0.000E+00 ortho     =-0.143E-04
 gamma     =   0.40430
 trial     =   0.61389
 opt step  =   0.81345  (harmonic =   0.81345) maximal distance =0.00106215
 next E    =   -40.879223   (d E  =  -0.00005)

[...]

 d Force =-0.3746616E-05[-0.130E-04, 0.551E-05]  d Energy = 0.2616349E-04-0.299E-04
 d Force = 0.4135205E-01[ 0.413E-01, 0.414E-01]  d Ewald  = 0.4135205E-01 0.357E-09

[...]

 eigenvalue-minimisations  :   480
 total energy-change (2. order) : 0.4300000E-05  (-0.6341403E-05)
 number of electron      89.9999931 magnetization       0.0000011
 augmentation part       56.1480276 magnetization       0.0000005

[...]

 d Force =-0.2289821E-05[-0.124E-04, 0.778E-05]  d Energy =-0.4611380E-05 0.232E-05
 d Force =-0.1291366E-01[-0.129E-01,-0.129E-01]  d Ewald  =-0.1291366E-01 0.211E-09

[...]

 Broyden mixing:
  rms(total) = 0.27998E-03    rms(broyden)= 0.27939E-03
  rms(prec ) = 0.40880E-03
  weight for this iteration     100.00

[...]

--------------------------------------- Iteration     63(   2)  ---------------------------------------

 eigenvalue-minimisations  :   480
 total energy-change (2. order) :-0.4550544E-05  (-0.5770601E-05)
 number of electron      89.9999932 magnetization       0.0000010
 augmentation part       56.1479174 magnetization       0.0000005

 Free energy of the ion-electron system (eV)
  alpha Z        PSCENC =       285.34744303
  Ewald energy   TEWEN  =     53274.61711784
  -Hartree energ DENC   =    -64212.58095690
  -exchange      EXHF   =         0.00000000
  -V(xc)+E(xc)   XCENC  =       362.94626441
  PAW double counting   =     10596.00636445   -11458.51408356
  entropy T*S    EENTRO =        -0.02666182
  eigenvalues    EBANDS =       -37.61841535
  atomic energy  EATOM  =     11152.61838693
  Solvation  Ediel_sol  =         0.00000000
  free energy    TOTEN  =       -37.20454098 eV

  energy without entropy =      -37.17787916  energy(sigma->0) =      -37.19565371

 average (electrostatic) potential at core
  the test charge radii are     0.9430  0.5201
  (the norm of the test charge is              1.0000)
       1 -68.0646       2 -68.6402       3 -68.7392       4 -68.7028       5 -68.7078
       6 -68.7554       7 -68.6868       8 -68.2425       9 -34.8484      10 -34.7667

 E-fermi :   2.0498     XC(G=0):  -8.1062     alpha+bet : -7.8182

 Fermi energy:         2.0498296305

[...]

 k-point     4 :      -0.3333    0.3333    0.0000
  band No.  band energies     occupation
      1      -2.5398      1.00000
      2      -1.5791      1.00000
      3      -1.5686      1.00000
      4      -1.5652      1.00000
      5      -1.5007      1.00000
      6      -1.4614      1.00000
      7      -1.4444      1.00000
      8      -1.4137      1.00000
      9      -1.4087      1.00000
     10      -1.3953      1.00000
     11      -1.3901      1.00000
     12      -1.3557      1.00000
     13      -1.2583      1.00000
     14      -1.1547      1.00000
     15      -1.1165      1.00000
     16      -1.0371      1.00000
     17      -0.7411      1.00000
     18      -0.6972      1.00000
     19      -0.6927      1.00000
     20      -0.6254      1.00000
     21      -0.4710      1.00000
     22      -0.3697      1.00000
     23       0.0123      1.00000
     24       0.0910      1.00000
     25       0.2120      1.00000
     26       0.2272      1.00000
     27       0.3002      1.00000
     28       0.3012      1.00000
     29       0.3306      1.00000
     30       0.3393      1.00000
     31       0.3514      1.00000
     32       0.6124      1.00000
     33       0.7039      1.00000
     34       0.8201      1.00000
     35       0.8306      1.00000
     36       0.8529      1.00000
     37       0.9264      1.00000
     38       0.9704      1.00000
     39       0.9768      1.00000
     40       1.0463      1.00000
     41       1.1194      1.00000
     42       5.7444     -0.00000
     43       5.7490     -0.00000
     44       5.7719     -0.00000
     45       5.9191     -0.00000
     46       5.9421     -0.00000
     47       6.1832     -0.00000
     48       6.3303     -0.00000
     49       6.8752     -0.00000
     50       7.0789     -0.00000
     51       7.6511      0.00000
     52       7.6622      0.00000
     53       7.7856      0.00000
     54       8.2007      0.00000
     55       8.2212      0.00000
     56       8.7576      0.00000
     57       9.1904      0.00000
     58       9.3142      0.00000
     59      10.4576      0.00000
     60      11.0089      0.00000
 Fermi energy:         2.0498296305

 spin component 2

[...]

 k-point     4 :      -0.3333    0.3333    0.0000
  band No.  band energies     occupation
      1      -2.5398      1.00000
      2      -1.5791      1.00000
      3      -1.5686      1.00000
      4      -1.5652      1.00000
      5      -1.5007      1.00000
      6      -1.4614      1.00000
      7      -1.4444      1.00000
      8      -1.4137      1.00000
      9      -1.4087      1.00000
     10      -1.3953      1.00000
     11      -1.3901      1.00000
     12      -1.3557      1.00000
     13      -1.2583      1.00000
     14      -1.1547      1.00000
     15      -1.1165      1.00000
     16      -1.0371      1.00000
     17      -0.7411      1.00000
     18      -0.6972      1.00000
     19      -0.6927      1.00000
     20      -0.6254      1.00000
     21      -0.4710      1.00000
     22      -0.3697      1.00000
     23       0.0123      1.00000
     24       0.0910      1.00000
     25       0.2120      1.00000
     26       0.2272      1.00000
     27       0.3002      1.00000
     28       0.3012      1.00000
     29       0.3306      1.00000
     30       0.3393      1.00000
     31       0.3514      1.00000
     32       0.6124      1.00000
     33       0.7039      1.00000
     34       0.8201      1.00000
     35       0.8306      1.00000
     36       0.8529      1.00000
     37       0.9264      1.00000
     38       0.9704      1.00000
     39       0.9768      1.00000
     40       1.0463      1.00000
     41       1.1194      1.00000
     42       5.7444     -0.00000
     43       5.7490     -0.00000
     44       5.7719     -0.00000
     45       5.9191     -0.00000
     46       5.9421     -0.00000
     47       6.1832     -0.00000
     48       6.3303     -0.00000
     49       6.8752     -0.00000
     50       7.0789     -0.00000
     51       7.6511      0.00000
     52       7.6622      0.00000
     53       7.7856      0.00000
     54       8.2007      0.00000
     55       8.2212      0.00000
     56       8.7576      0.00000
     57       9.1904      0.00000
     58       9.3142      0.00000
     59      10.4576      0.00000
     60      11.0089      0.00000

[...]

 soft charge-density along one line, spin component           2
         0         1         2         3         4         5         6         7         8         9
 total charge-density along one line

------------------------ aborting loop because EDIFF is reached ----------------------------------------

         DFTD3 V3.0 Rev 1
 Edisp (eV)   -3.67470

 E6    (eV) :    -1.5337
 E8    (eV) :    -2.1410
 % E8        : 58.26

  FORCE on cell =-STRESS in cart. coord.  units (eV):
  Direction    XX          YY          ZZ          XY          YZ          ZX
  Alpha Z   285.34744   285.34744   285.34744
  Ewald   59159.65315 59154.48770-65039.53735    -0.00000    -0.03852    -0.00000
  Hartree 62395.67289 62393.06326-60575.41300     0.00000     0.03790    -0.00000
  E(xc)    -521.00220  -521.01960  -521.08455    -0.00013    -0.00154     0.00000
  Local  ************************124546.50510     0.00403    -0.05531    -0.00001
  n-local  -174.71794  -174.70150  -180.02051     4.01000     0.00914     1.32288
  augment   759.76789   759.81288   753.57582    -0.00385     0.00280    -0.00001
  Kinetic   742.42861   742.69011   734.06256   -15.22671     0.04972     2.58799
  Fock        0.00000     0.00000     0.00000     0.00000     0.00000     0.00000
  vdW        -4.33809    -4.39416    -3.77478     0.00000    -0.00014     0.00000
  Total      -4.43349    -4.46242    -0.33926    -0.00000     0.00405     0.00000
  in kB     -41.95832   -42.23208    -3.21075    -0.00000     0.03836     0.00000

 VOLUME and BASIS-vectors are now :
  energy-cutoff  :      400.00
  volume of cell :      169.29
      direct lattice vectors                 reciprocal lattice vectors
     2.566797733  0.000000000  0.000000000     0.389590495 -0.224930177  0.000000000
     1.283398867  2.222912043  0.000000000     0.000000000  0.449860355  0.000000000
     0.000000000  0.000000000 29.670471191     0.000000000  0.000000000  0.033703543

  length of vectors
     2.566797733  2.566797733 29.670471191     0.449860355  0.449860355  0.033703543

 FORCES acting on ions
    electron-ion (+dipol)            ewald-force                    non-local-force                 convergence-correction
   -.318E-05 0.509E-02 0.607E+04   0.104E-07 -.718E-02 -.607E+04   0.482E-13 0.214E-02 -.360E+01   -.107E-08 0.270E-04 -.949E-02
   0.173E-05 -.457E-02 0.437E+04   -.263E-07 0.535E-02 -.437E+04   -.195E-13 -.865E-03 0.220E+00   0.211E-07 -.449E-04 -.182E+00
   -.107E-04 0.125E-01 0.267E+04   0.254E-07 -.130E-01 -.267E+04   0.109E-13 0.484E-03 0.733E-01   -.161E-07 -.141E-04 -.326E+00
   0.115E-05 -.234E-01 0.982E+03   0.530E-09 0.246E-01 -.981E+03   -.257E-13 -.114E-02 -.773E+00   -.365E-07 -.568E-05 -.357E+00
   0.425E-05 0.229E-01 -.726E+03   -.256E-07 -.243E-01 0.726E+03   0.312E-13 0.139E-02 0.796E+00   -.310E-07 0.178E-04 -.333E+00
   -.192E-05 -.279E-01 -.242E+04   0.255E-07 0.289E-01 0.242E+04   -.242E-13 -.108E-02 -.649E-01   -.295E-09 0.527E-05 -.267E+00
   0.137E-05 0.282E-01 -.412E+04   0.796E-09 -.281E-01 0.412E+04   -.290E-15 -.133E-04 0.230E-01   0.229E-07 -.646E-04 -.102E+00
   0.797E-05 0.350E-02 -.583E+04   -.113E-07 0.207E-02 0.583E+04   -.120E-12 -.535E-02 0.454E+01   -.891E-08 -.525E-04 0.538E-01
   -.147E-07 -.134E+00 -.508E+03   0.575E-09 0.169E+00 0.503E+03   -.791E-12 -.352E-01 0.474E+01   -.585E-09 -.189E-05 0.185E-01
   -.893E-07 0.123E+00 -.489E+03   0.641E-10 -.157E+00 0.494E+03   0.789E-12 0.351E-01 -.482E+01   -.421E-09 -.260E-05 0.202E-01
   0.620E-06 0.528E-02 0.373E+00   0.219E-12 -.563E-13 0.284E-11   -.103E-12 -.456E-02 0.113E+01   -.509E-07 -.136E-03 -.148E+01

 POSITION                                       TOTAL-FORCE (eV/Angst)
      0.00000      0.00027      0.02685         0.000000      0.000017      0.005459
      1.28340      0.74098      2.02344        -0.000000     -0.000178     -0.017719
      2.56680      1.48188      4.04557        -0.000000     -0.000097     -0.009415
     -0.00000     -0.00065      6.07807        -0.000000     -0.000014     -0.003454
      1.28340      0.74069      8.08952        -0.000000     -0.000038      0.005799
      2.56680      1.48108     10.11938        -0.000000     -0.000055     -0.000191
     -0.00000     -0.00031     12.13694        -0.000000     -0.000115     -0.020021
      1.28340      0.74039     14.12751        -0.000000     -0.000029      0.008509
      2.56680      0.74493     16.23295         0.000000      0.000533      0.029709
      2.56680      0.73949     16.99368        -0.000000     -0.000023      0.001324
    total drift:                                0.000001      0.000585      0.021532

  FREE ENERGIE OF THE ION-ELECTRON SYSTEM (eV)
  free  energy   TOTEN  =       -40.87924503 eV

  energy  without entropy=      -40.85258320  energy(sigma->0) =      -40.87035775

 d Force = 0.3790561E-05[-0.276E-08, 0.758E-05]  d Energy = 0.8350996E-05-0.456E-05
 d Force = 0.7927509E-02[ 0.792E-02, 0.793E-02]  d Ewald  = 0.7927509E-02 0.728E-10

 stress matrix after NEB project (eV)
     -4.43349     -0.00000      0.00000
     -0.00000     -4.46242      0.00405
      0.00000      0.00405     -0.33926
  FORCES: max atom, RMS     0.029713    0.013550
  FORCE total and by dimension    0.042848    0.029709
  Stress total and by dimension    6.299536    4.462418

 reached required accuracy - stopping structural energy minimisation