 vasp.6.3.2 27Jun22 (build Aug 17 2022 15:43:34) complex

 executed on           tv2STDVTST date 2025.02.04  13:49:01

 INCAR:
   ISTART = 0
   ICHARG = 2
   IPIPOL = 3
   IVDW = 11
   ISPIN = 2
   ENCUT = 400
   PREC = Normal
   EDIFF = 2E-04
   GGA = PE
   ISMEAR = 1
   SIGMA = 0.2
   LREAL = .FALSE.
   ISYM = 1
   NSW = 800
   IBRION = 2
   POTIM = 0.5
   ISIF = 2
   EDIFFG = -.03
   NPAR = 4
   LWAVE = .FALSE.
   LCHARG = .FALSE.

 POTCAR:    PAW_PBE Cu 22Jun2005
 POTCAR:    PAW_PBE H 15Jun2001
|           W    W    AA    RRRRR   N    N  II  N    N   GGGG   !!!           |
|           W    W   A  A   R    R  NN   N  II  NN   N  G    G  !!!           |
|           W    W  A    A  R    R  N N  N  II  N N  N  G       !!!           |
|           W WW W  AAAAAA  RRRRR   N  N N  II  N  N N  G  GGG   !            |
|           WW  WW  A    A  R   R   N   NN  II  N   NN  G    G                |
|           W    W  A    A  R    R  N    N  II  N    N   GGGG   !!!           |
|     You use a magnetic or noncollinear calculation, but did not specify     |
|     the initial magnetic moment with the MAGMOM tag. Note that a            |
|     default of 1 will be used for all atoms. This ferromagnetic setup       |
|     may break the symmetry of the crystal, in particular it may rule        |
|     out finding an antiferromagnetic solution. Thence, we recommend         |
|     setting the initial magnetic moment manually or verifying carefully     |
|     that this magnetic setup is desired.                                    |

   TITEL  = PAW_PBE Cu 22Jun2005
   POMASS =   63.546; ZVAL   =   11.000    mass and valenz
   ENMAX  =  295.446; ENMIN  =  221.585 eV

   TITEL  = PAW_PBE H 15Jun2001
   POMASS =    1.000; ZVAL   =    1.000    mass and valenz
   ENMAX  =  250.000; ENMIN  =  200.000 eV

  PAW_PBE Cu 22Jun2005                  :
  PAW_PBE H 15Jun2001                   :

 POSCAR: FCC Cu
  positions in cartesian coordinates
 exchange correlation table for  LEXCH =        8
   RHO(1)=    0.500       N(1)  =     2000
   RHO(2)=  100.500       N(2)  =     4000

 VTST: version 4.2, (08/11/21)

 CHAIN: initializing optimizer

 OPT: Using VASP Conjugate-Gradient optimizer
 CHAIN: Read ICHAIN            0

 POSCAR: FCC Cu
  positions in cartesian coordinates

 ion  position               nearest neighbor table
   1  0.000  0.000  0.000-   3 2.51   2 2.57   2 2.57   2 2.57   2 2.57
   2  0.500  0.500  0.054-   4 2.50   3 2.54   3 2.54   3 2.54   3 2.54   1 2.57   1 2.57   1 2.57
                             1 2.57
   3  0.000  0.000  0.105-   1 2.51   2 2.54   2 2.54   2 2.54   2 2.54   5 2.54   4 2.56   4 2.56
                             4 2.56   4 2.56
   4  0.500  0.500  0.158-   2 2.50   6 2.52   5 2.56   5 2.56   5 2.56   5 2.56   3 2.56   3 2.56
                             3 2.56   3 2.56
   5  0.000  0.000  0.211-   3 2.54   6 2.55   6 2.55   6 2.55   6 2.55   7 2.55   4 2.56   4 2.56
                             4 2.56   4 2.56
   6  0.500  0.500  0.263-   8 2.44   4 2.52   5 2.55   5 2.55   5 2.55   5 2.55   7 2.58   7 2.58
                             7 2.58   7 2.58
   7  0.000  0.000  0.317-   8 2.50   8 2.50   8 2.50   8 2.50   5 2.55   6 2.58   6 2.58   6 2.58
                             6 2.58
   8  0.500  0.500  0.365-   6 2.44   7 2.50   7 2.50   7 2.50   7 2.50
   9  1.000  0.000  0.427-  10 0.75
  10  1.000  0.206  0.449-   9 0.75

  LATTYP: Found a simple orthorhombic cell.
 ALAT       =     2.5667977333
 B/A-ratio  =     1.4142135422
 C/A-ratio  =     9.3438571494

  Lattice vectors:

 A1 = (   0.0000000000,  -2.5667977333,   0.0000000000)
 A2 = (   3.6300001144,   0.0000000000,   0.0000000000)
 A3 = (   0.0000000000,   0.0000000000,  23.9837913513)

Analysis of symmetry for initial positions (statically):
 Subroutine PRICEL returns:
 Original cell was already a primitive cell.

 Routine SETGRP: Setting up the symmetry group for a
 simple orthorhombic supercell.

 Subroutine GETGRP returns: Found  2 space group operations
 (whereof  2 operations were pure point group operations)
 out of a pool of  8 trial point group operations.

The static configuration has the point symmetry C_1h.

Analysis of symmetry for dynamics (positions and initial velocities):
 Subroutine PRICEL returns:
 Original cell was already a primitive cell.

[...]

The dynamic configuration has the point symmetry C_1h.

Analysis of structural, dynamic, and magnetic symmetry:
 Subroutine PRICEL returns:
 Original cell was already a primitive cell.

 Routine SETGRP: Setting up the symmetry group for a
 simple orthorhombic supercell.

 Subroutine GETGRP returns: Found  2 space group operations
 (whereof  2 operations were pure point group operations)
 out of a pool of  8 trial point group operations.

The overall configuration has the point symmetry C_1h.

 Subroutine INISYM returns: Found  2 space group operations
 (whereof  2 operations are pure point group operations),
 and found     1 'primitive' translations

                                     Primitive cell

  volume of cell :     223.4684

  direct lattice vectors                    reciprocal lattice vectors
     3.630000114  0.000000000  0.000000000     0.275482085  0.000000000  0.000000000
     0.000000000  2.566797733  0.000000000     0.000000000  0.389590495  0.000000000
     0.000000000  0.000000000 23.983791351     0.000000000  0.000000000  0.041694826

  length of vectors
     3.630000114  2.566797733 23.983791351     0.275482085  0.389590495  0.041694826

  position of ions in fractional coordinates (direct lattice)
     0.000000000  0.000000000  0.000000000
     0.500000000  0.500000000  0.053511090
     0.000000000  0.000000000  0.104681476
     0.500000000  0.500000000  0.157929955
     0.000000000  0.000000000  0.210708991
     0.500000000  0.500000000  0.262890478
     0.000000000  0.000000000  0.317115916
     0.500000000  0.500000000  0.364675901
     1.000000000  0.000000000  0.426907920
     1.000000000  0.205509633  0.448902010

  ion indices of the primitive-cell ions
   primitive index   ion index
                 1           1
                 2           2
                 3           3
                 4           4
                 5           5
                 6           6
                 7           7
                 8           8
                 9           9
                10          10

 KPOINTS: Auto-mesh

Automatic generation of k-mesh.
 Grid dimensions read from file:
 generate k-points for:    3    3    1

 Generating k-lattice:

  Cartesian coordinates                     Fractional coordinates (reciprocal lattice)
     0.091827362  0.000000000  0.000000000     0.333333333  0.000000000  0.000000000
     0.000000000  0.129863498  0.000000000     0.000000000  0.333333333  0.000000000
     0.000000000  0.000000000  0.041694826     0.000000000  0.000000000  1.000000000

  Length of vectors
     0.091827362  0.129863498  0.041694826

  Shift w.r.t. Gamma in fractional coordinates (k-lattice)
     0.000000000  0.000000000  0.000000000

 Subroutine IBZKPT returns following result:

 Found      4 irreducible k-points:

 Following reciprocal coordinates:
            Coordinates               Weight
  0.000000  0.000000  0.000000      1.000000
  0.333333  0.000000  0.000000      2.000000
  0.000000  0.333333  0.000000      2.000000
  0.333333  0.333333  0.000000      4.000000

 Following cartesian coordinates:
            Coordinates               Weight
  0.000000  0.000000  0.000000      1.000000
  0.091827  0.000000  0.000000      2.000000
  0.000000  0.129863  0.000000      2.000000
  0.091827  0.129863  0.000000      4.000000

 SYSTEM =  unknown system
 POSCAR =  FCC Cu

 Startparameter for this run:
   NWRITE =      2    write-flag & timer
   PREC   = normal    normal or accurate (medium, high low for compatibility)
   ISTART =      0    job   : 0-new  1-cont  2-samecut
   ICHARG =      2    charge: 1-file 2-atom 10-const
   ISPIN  =      2    spin polarized calculation?
   LNONCOLLINEAR =      F non collinear calculations
   LSORBIT =      F    spin-orbit coupling
   INIWAV =      1    electr: 0-lowe 1-rand  2-diag
   LASPH  =      F    aspherical Exc in radial PAW
 Electronic Relaxation 1
   ENCUT  =  400.0 eV  29.40 Ry    5.42 a.u.   5.92  4.19 39.11*2*pi/ulx,y,z
   ENINI  =  400.0     initial cutoff
   ENAUG  =  587.0 eV  augmentation charge cutoff
   NELM   =     60;   NELMIN=  2; NELMDL= -5     # of ELM steps
   EDIFF  = 0.2E-03   stopping-criterion for ELM
   LREAL  =      F    real-space projection
   NLSPLINE    = F    spline interpolate recip. space projectors
   LCOMPAT=      F    compatible to vasp.4.4
   GGA_COMPAT  = T    GGA compatible to vasp.4.4-vasp.4.6
   LMAXPAW     = -100 max onsite density
   LMAXMIX     =    2 max onsite mixed and CHGCAR
   VOSKOWN=      0    Vosko Wilk Nusair interpolation
   ROPT   =    0.00000   0.00000
 Ionic relaxation
   EDIFFG = -.3E-01   stopping-criterion for IOM
   NSW    =    800    number of steps for IOM
   NBLOCK =      1;   KBLOCK =    800    inner block; outer block
   IBRION =      2    ionic relax: 0-MD 1-quasi-New 2-CG
   NFREE  =      1    steps in history (QN), initial steepest desc. (CG)
   ISIF   =      2    stress and relaxation
   IWAVPR =     11    prediction:  0-non 1-charg 2-wave 3-comb
   ISYM   =      1    0-nonsym 1-usesym 2-fastsym
   LCORR  =      T    Harris-Foulkes like correction to forces

   POTIM  = 0.5000    time-step for ionic-motion
   TEIN   =    0.0    initial temperature
   TEBEG  =    0.0;   TEEND  =   0.0 temperature during run
   SMASS  =  -3.00    Nose mass-parameter (am)
   estimated Nose-frequenzy (Omega)   =  0.10E-29 period in steps = 0.13E+47 mass=  -0.301E-27a.u.
   SCALEE = 1.0000    scale energy and forces
   NPACO  =    256;   APACO  = 10.0  distance and # of slots for P.C.
   PSTRESS=    0.0 pullay stress

  Mass of Ions in am
   POMASS =  63.55  1.00
  Ionic Valenz
   ZVAL   =  11.00  1.00
  Atomic Wigner-Seitz radii
  virtual crystal weights
   VCA    =   1.00  1.00
   NELECT =      90.0000    total number of electrons
   NUPDOWN=      -1.0000    fix difference up-down

 DOS related values:
   EMIN   =  10.00;   EMAX   =-10.00  energy-range for DOS
   EFERMI =   0.00
   ISMEAR =     1;   SIGMA  =   0.20  broadening in eV -4-tet -1-fermi 0-gaus

 Electronic relaxation 2 (details)
   IALGO  =     38    algorithm
   LDIAG  =      T    sub-space diagonalisation (order eigenvalues)
   LSUBROT=      F    optimize rotation matrix (better conditioning)
   TURBO    =      0    0=normal 1=particle mesh
   IRESTART =      0    0=no restart 2=restart with 2 vectors
   NREBOOT  =      0    no. of reboots
   NMIN     =      0    reboot dimension
   EREF     =   0.00    reference energy to select bands
   IMIX   =      4    mixing-type and parameters
     AMIX     =   0.40;   BMIX     =  1.00
     AMIX_MAG =   1.60;   BMIX_MAG =  1.00
     AMIN     =   0.10
     WC   =   100.;   INIMIX=   1;  MIXPRE=   1;  MAXMIX= -45

 Intra band minimization:
   WEIMIN = 0.0010     energy-eigenvalue tresh-hold
   EBREAK =  0.83E-06  absolut break condition
   DEPER  =   0.30     relativ break condition

   TIME   =   0.40     timestep for ELM

[...]
 d Force =-0.1478212E+03[-0.148E+03,-0.148E+03]  d Ewald  =-0.1478267E+03 0.553E-02

 stress matrix after NEB project (eV)
     -4.79857      0.00000      0.00000
      0.00000     -4.64655     -0.09997
      0.00000     -0.09997     -0.24951
  FORCES: max atom, RMS     0.561318    0.234334
  FORCE total and by dimension    0.741031    0.413865
  Stress total and by dimension    6.685727    4.798568
 Conjugate gradient step on ions:
 trial-energy change:   -0.030070  1 .order   -0.030666   -0.037756   -0.023576
  (g-gl).g = 0.509E-01      g.g   = 0.509E-01  gl.gl    = 0.685E-01
 g(Force)  = 0.509E-01   g(Stress)= 0.000E+00 ortho     = 0.721E-04
 gamma     =   0.74265
 trial     =   0.74045
 opt step  =   1.97153  (harmonic =   1.97153) maximal distance =0.07540950
 next E    =   -38.442501   (d E  =  -0.05026)

[...]

 stress matrix after NEB project (eV)
     -4.14546      0.00000      0.00000
      0.00000     -4.05085      0.14084
      0.00000      0.14084      0.77606
  FORCES: max atom, RMS     0.439158    0.163216
  FORCE total and by dimension    0.516135    0.423615
  Stress total and by dimension    5.851166    4.145457
 Conjugate gradient step on ions:
 trial-energy change:   -0.009816  1 .order   -0.009540   -0.014397   -0.004682
  (g-gl).g = 0.681E-02      g.g   = 0.147E-01  gl.gl    = 0.509E-01
 g(Force)  = 0.147E-01   g(Stress)= 0.000E+00 ortho     =-0.118E-02
 gamma     =   0.13363
 trial     =   0.98667
 opt step  =   1.46220  (harmonic =   1.46220) maximal distance =0.01880473
 next E    =   -38.453058   (d E  =  -0.01067)

[...]

 d Force =-0.8087478E-03[-0.121E-01, 0.104E-01]  d Energy =-0.1643721E-03-0.644E-03
 d Force =-0.2515529E+03[-0.252E+03,-0.251E+03]  d Ewald  =-0.2515538E+03 0.848E-03

[...]

 d Force =-0.7480157E-03[-0.125E-01, 0.110E-01]  d Energy = 0.7542092E-03-0.150E-02
 d Force =-0.3859795E+02[-0.389E+02,-0.383E+02]  d Ewald  =-0.3859706E+02-0.893E-03

[...]

 d Force =-0.1961473E-05[-0.159E-03, 0.155E-03]  d Energy =-0.2661660E-04 0.247E-04
 d Force = 0.2402846E+01[ 0.240E+01, 0.240E+01]  d Ewald  = 0.2402846E+01 0.230E-06

[...]

 d Force = 0.3188644E-02[ 0.268E-02, 0.370E-02]  d Energy = 0.3305512E-02-0.117E-03
 d Force = 0.7338669E+02[ 0.734E+02, 0.734E+02]  d Ewald  = 0.7338670E+02-0.104E-04

[...]

 d Force = 0.1070180E-05[-0.469E-05, 0.683E-05]  d Energy =-0.3808658E-05 0.488E-05
 d Force =-0.1751561E-01[-0.175E-01,-0.175E-01]  d Ewald  =-0.1751561E-01 0.358E-08

[...]

 d Force =-0.1398887E-04[-0.299E-04, 0.191E-05]  d Energy =-0.1707958E-05-0.123E-04
 d Force = 0.7129428E-02[ 0.713E-02, 0.713E-02]  d Ewald  = 0.7129429E-02-0.662E-09

[...]

 d Force = 0.4608043E-05[-0.189E-04, 0.281E-04]  d Energy =-0.3206504E-06 0.493E-05
 d Force =-0.6701331E-02[-0.670E-02,-0.670E-02]  d Ewald  =-0.6701331E-02 0.306E-09

[...]

 d Force =-0.1512017E-05[-0.618E-05, 0.315E-05]  d Energy = 0.7997942E-06-0.231E-05
 d Force =-0.2668581E+00[-0.267E+00,-0.267E+00]  d Ewald  =-0.2668581E+00-0.873E-10

[...]

 d Force =-0.2211882E-04[-0.861E-04, 0.418E-04]  d Energy =-0.3356682E-04 0.114E-04
 d Force =-0.3796046E+01[-0.380E+01,-0.380E+01]  d Ewald  =-0.3796045E+01-0.197E-06

[...]

 d Force = 0.2233187E-04[-0.132E-04, 0.579E-04]  d Energy = 0.4609848E-04-0.238E-04
 d Force = 0.2554822E+01[ 0.255E+01, 0.256E+01]  d Ewald  = 0.2554822E+01 0.596E-07

[...]

 d Force = 0.1263305E-03[-0.316E-04, 0.284E-03]  d Energy = 0.1984992E-03-0.722E-04
 d Force =-0.2065761E+02[-0.207E+02,-0.206E+02]  d Ewald  =-0.2065760E+02-0.457E-05

[...]

 stress matrix after NEB project (eV)
     -4.67225      0.00000      0.00000
      0.00000     -4.26559      0.03661
      0.00000      0.03661     -0.07529
  FORCES: max atom, RMS     0.042860    0.028541
  FORCE total and by dimension    0.090253    0.042854
  Stress total and by dimension    6.327205    4.672248
 Conjugate gradient step on ions:
 trial-energy change:   -0.000225  1 .order   -0.000230   -0.000272   -0.000188
  (g-gl).g = 0.545E-03      g.g   = 0.745E-03  gl.gl    = 0.514E-03
 g(Force)  = 0.745E-03   g(Stress)= 0.000E+00 ortho     =-0.272E-04
 gamma     =   1.06084
 trial     =   0.37995
 opt step  =   1.22680  (harmonic =   1.22680) maximal distance =0.01259597
 next E    =   -38.542542   (d E  =  -0.00044)

[...]

 d Force = 0.2778262E-03[ 0.137E-03, 0.418E-03]  d Energy = 0.2728955E-03 0.493E-05
 d Force =-0.6050873E+01[-0.606E+01,-0.604E+01]  d Ewald  =-0.6050870E+01-0.262E-05

[...]

 stress matrix after NEB project (eV)
     -4.78354      0.00000      0.00000
      0.00000     -4.38911      0.02764
      0.00000      0.02764     -0.27902
  FORCES: max atom, RMS     0.058019    0.025860
  FORCE total and by dimension    0.081778    0.056254
  Stress total and by dimension    6.498147    4.783542
 Conjugate gradient step on ions:
 trial-energy change:   -0.000377  1 .order   -0.000327   -0.000417   -0.000238
  (g-gl).g = 0.824E-03      g.g   = 0.101E-02  gl.gl    = 0.745E-03
 g(Force)  = 0.101E-02   g(Stress)= 0.000E+00 ortho     = 0.162E-03
 gamma     =   1.10667
 trial     =   0.35025
 opt step  =   0.81760  (harmonic =   0.81760) maximal distance =0.00956093
 next E    =   -38.543088   (d E  =  -0.00049)

[...]

 eigenvalue-minimisations  :  1072
 total energy-change (2. order) :-0.1338169E-03  (-0.2088290E-03)
 number of electron      90.0000793 magnetization       0.0000000
 augmentation part       56.1851547 magnetization       0.0000000

 Broyden mixing:
  rms(total) = 0.51943E-02    rms(broyden)= 0.51930E-02
  rms(prec ) = 0.55226E-02
  weight for this iteration     100.00

 eigenvalues of (default mixing * dielectric matrix)
  average eigenvalue GAMMA=   1.0260
  1.0260

[...]

--------------------------------------- Iteration     71(   3)  ---------------------------------------

 eigenvalue-minimisations  :   656
 total energy-change (2. order) : 0.1296745E-04  (-0.3308422E-04)
 number of electron      90.0000793 magnetization       0.0000000
 augmentation part       56.1851547 magnetization       0.0000000

 Free energy of the ion-electron system (eV)
  alpha Z        PSCENC =       216.17040255
  Ewald energy   TEWEN  =     42410.97180979
  -Hartree energ DENC   =    -53138.49707021
  -exchange      EXHF   =         0.00000000
  -V(xc)+E(xc)   XCENC  =       362.13355611
  PAW double counting   =     10524.97185414   -11386.97285518
  entropy T*S    EENTRO =        -0.00353597
  eigenvalues    EBANDS =      -176.71257054
  atomic energy  EATOM  =     11152.61838693
  Solvation  Ediel_sol  =         0.00000000
  free energy    TOTEN  =       -35.32002237 eV

  energy without entropy =      -35.31648640  energy(sigma->0) =      -35.31884371

 average (electrostatic) potential at core
  the test charge radii are     0.9430  0.5201
  (the norm of the test charge is              1.0000)
       1 -69.7236       2 -70.1793       3 -70.3171       4 -70.3327       5 -70.3288
       6 -70.3402       7 -70.2119       8 -69.8054       9 -36.4451      10 -36.3817

 E-fermi :   0.7731     XC(G=0):  -6.6093     alpha+bet : -5.9229

 Fermi energy:         0.7730609331

[...]

 k-point     4 :       0.3333    0.3333    0.0000
  band No.  band energies     occupation
      1      -4.9489      1.00000
      2      -4.7968      1.00000
      3      -4.0924      1.00000
      4      -3.5436      1.00000
      5      -3.4609      1.00000
      6      -3.1790      1.00000
      7      -3.1264      1.00000
      8      -3.0086      1.00000
      9      -2.9836      1.00000
     10      -2.8193      1.00000
     11      -2.8042      1.00000
     12      -2.5699      1.00000
     13      -2.5088      1.00000
     14      -2.3789      1.00000
     15      -2.3143      1.00000
     16      -2.2799      1.00000
     17      -2.2309      1.00000
     18      -2.1625      1.00000
     19      -2.0362      1.00000
     20      -1.9679      1.00000
     21      -1.9467      1.00000
     22      -1.9258      1.00000
     23      -1.8869      1.00000
     24      -1.7497      1.00000
     25      -1.6636      1.00000
     26      -1.5387      1.00000
     27      -1.5325      1.00000
     28      -1.2620      1.00000
     29      -1.2087      1.00000
     30      -1.1600      1.00000
     31      -1.1100      1.00000
     32      -1.0770      1.00000
     33      -0.9997      1.00000
     34      -0.9796      1.00000
     35      -0.8556      1.00000
     36      -0.7642      1.00000
     37      -0.7398      1.00000
     38      -0.6816      1.00000
     39      -0.6592      1.00000
     40      -0.6098      1.00000
     41      -0.5638      1.00000
     42      -0.5224      1.00000
     43      -0.1730      1.00000
     44       0.6772      0.85860
     45       1.7138     -0.00000
     46       2.1361     -0.00000
     47       2.6726     -0.00000
     48       3.9932     -0.00000
     49       4.0788     -0.00000
     50       5.5742     -0.00000
     51       5.6895     -0.00000
     52       6.0897     -0.00000
     53       6.7261      0.00000
     54       7.1461      0.00000
     55       7.9400      0.00000
     56       8.0622      0.00000
     57       8.3293      0.00000
     58       8.8892      0.00000
     59       9.4630      0.00000
     60       9.6875      0.00000
 Fermi energy:         0.7730609331

 spin component 2

[...]

 k-point     4 :       0.3333    0.3333    0.0000
  band No.  band energies     occupation
      1      -4.9489      1.00000
      2      -4.7968      1.00000
      3      -4.0924      1.00000
      4      -3.5436      1.00000
      5      -3.4609      1.00000
      6      -3.1790      1.00000
      7      -3.1264      1.00000
      8      -3.0086      1.00000
      9      -2.9836      1.00000
     10      -2.8193      1.00000
     11      -2.8042      1.00000
     12      -2.5699      1.00000
     13      -2.5088      1.00000
     14      -2.3789      1.00000
     15      -2.3143      1.00000
     16      -2.2799      1.00000
     17      -2.2309      1.00000
     18      -2.1625      1.00000
     19      -2.0362      1.00000
     20      -1.9679      1.00000
     21      -1.9467      1.00000
     22      -1.9258      1.00000
     23      -1.8869      1.00000
     24      -1.7497      1.00000
     25      -1.6636      1.00000
     26      -1.5387      1.00000
     27      -1.5325      1.00000
     28      -1.2620      1.00000
     29      -1.2087      1.00000
     30      -1.1600      1.00000
     31      -1.1100      1.00000
     32      -1.0770      1.00000
     33      -0.9997      1.00000
     34      -0.9796      1.00000
     35      -0.8556      1.00000
     36      -0.7642      1.00000
     37      -0.7398      1.00000
     38      -0.6816      1.00000
     39      -0.6592      1.00000
     40      -0.6098      1.00000
     41      -0.5638      1.00000
     42      -0.5224      1.00000
     43      -0.1730      1.00000
     44       0.6772      0.85860
     45       1.7138     -0.00000
     46       2.1361     -0.00000
     47       2.6726     -0.00000
     48       3.9932     -0.00000
     49       4.0788     -0.00000
     50       5.5742     -0.00000
     51       5.6895     -0.00000
     52       6.0897     -0.00000
     53       6.7261      0.00000
     54       7.1461      0.00000
     55       7.9400      0.00000
     56       8.0622      0.00000
     57       8.3293      0.00000
     58       8.8892      0.00000
     59       9.4630      0.00000
     60       9.6875      0.00000

[...]

 soft charge-density along one line, spin component           2
         0         1         2         3         4         5         6         7         8         9
 total charge-density along one line

------------------------ aborting loop because EDIFF is reached ----------------------------------------

         DFTD3 V3.0 Rev 1
 Edisp (eV)   -3.22326

 E6    (eV) :    -1.3085
 E8    (eV) :    -1.9148
 % E8        : 59.41

  FORCE on cell =-STRESS in cart. coord.  units (eV):
  Direction    XX          YY          ZZ          XY          YZ          ZX
  Alpha Z   216.17040   216.17040   216.17040
  Ewald   48139.57924 48262.73614-53991.34880    -0.00000     2.46016     0.00000
  Hartree 51205.92325 51299.91941-49368.05933    -0.00000    -0.26457    -0.00000
  E(xc)    -520.40779  -520.25898  -520.68620     0.00000     0.03581    -0.00000
  Local  ************************102353.51986     0.00000    -0.75990    -0.00000
  n-local  -179.51198  -175.14381  -180.50113     6.91047    -0.15411    -0.00580
  augment   755.27900   758.60756   757.64545     0.00000    -0.01781     0.00000
  Kinetic   738.48394   739.87091   735.81611     6.70159    -1.26961    -0.01677
  Fock        0.00000     0.00000     0.00000     0.00000     0.00000     0.00000
  vdW        -3.90651    -3.89462    -2.90470    -0.00000     0.00475     0.00000
  Total      -4.87825    -4.48069    -0.34834     0.00000     0.03473     0.00000
  in kB     -34.97509   -32.12474    -2.49744     0.00000     0.24901     0.00000

 VOLUME and BASIS-vectors are now :
  energy-cutoff  :      400.00
  volume of cell :      223.47
      direct lattice vectors                 reciprocal lattice vectors
     3.630000114  0.000000000  0.000000000     0.275482085  0.000000000  0.000000000
     0.000000000  2.566797733  0.000000000     0.000000000  0.389590495  0.000000000
     0.000000000  0.000000000 23.983791351     0.000000000  0.000000000  0.041694826

  length of vectors
     3.630000114  2.566797733 23.983791351     0.275482085  0.389590495  0.041694826

 FORCES acting on ions
    electron-ion (+dipol)            ewald-force                    non-local-force                 convergence-correction
   -.576E-13 0.134E-01 0.460E+04   -.744E-07 -.127E-01 -.459E+04   0.000E+00 0.780E-02 -.617E+01   0.581E-10 -.828E-02 0.494E-01
   0.736E-06 -.904E-02 0.352E+04   0.134E-06 0.124E-01 -.352E+04   0.000E+00 0.109E-01 0.146E+01   -.495E-10 -.125E-01 0.224E+00
   -.512E-13 0.247E-01 0.209E+04   -.125E-06 -.231E-01 -.209E+04   0.000E+00 0.201E-01 -.115E+01   0.125E-10 -.202E-01 0.372E+00
   0.753E-06 0.101E-01 0.774E+03   0.129E-06 -.593E-02 -.775E+03   0.000E+00 0.206E-01 0.265E+00   -.885E-11 -.238E-01 0.315E+00
   -.601E-13 0.878E-01 -.581E+03   -.129E-06 -.845E-01 0.581E+03   0.000E+00 0.120E-01 -.129E+00   0.817E-10 -.135E-01 0.202E+00
   0.760E-06 -.241E-01 -.189E+04   0.125E-06 0.326E-01 0.189E+04   0.000E+00 -.602E-02 0.143E+01   0.563E-10 0.732E-03 0.133E+00
   -.548E-13 -.336E-01 -.333E+04   -.134E-06 0.846E-02 0.333E+04   0.000E+00 -.510E-03 -.144E+01   -.728E-10 0.273E-01 0.945E-01
   0.799E-06 -.604E+00 -.442E+04   0.740E-07 0.654E+00 0.441E+04   0.000E+00 -.850E-01 0.685E+01   0.111E-09 0.290E-01 0.123E-02
   0.217E-07 0.388E+01 -.381E+03   0.576E-09 -.484E+01 0.377E+03   0.000E+00 0.979E+00 0.480E+01   -.230E-11 -.797E-03 -.278E-01
   0.239E-07 -.331E+01 -.378E+03   0.196E-09 0.426E+01 0.383E+03   0.000E+00 -.963E+00 -.478E+01   -.791E-11 0.401E-03 -.225E-01
   0.309E-05 0.423E-01 -.245E+01   0.318E-13 0.675E-13 -.171E-12   0.000E+00 -.391E-02 0.114E+01   0.178E-09 -.217E-01 0.134E+01

 POSITION                                       TOTAL-FORCE (eV/Angst)
      0.00000     -0.00217     -0.00222         0.000000     -0.001474     -0.020420
      1.81500      1.28064      1.13180         0.000000     -0.000245     -0.007521
      0.00000     -0.00414      2.42896         0.000000     -0.000477      0.003543
      1.81500      1.27682      3.68069         0.000000     -0.001150     -0.005461
      0.00000     -0.01062      4.94253         0.000000     -0.000247     -0.011914
      1.81500      1.26683      6.19016         0.000000      0.001924     -0.001776
      0.00000     -0.02239      7.49138         0.000000      0.000461      0.001493
      1.81500      1.25983      8.61328         0.000000     -0.000257      0.011658
      3.63000      0.23372     10.53826         0.000000      0.002862      0.006354
      3.63000      0.38258     11.28289         0.000000     -0.001399      0.024043
    total drift:                                0.000003      0.016643      0.030067

  FREE ENERGIE OF THE ION-ELECTRON SYSTEM (eV)
  free  energy   TOTEN  =       -38.54328315 eV

  energy  without entropy=      -38.53974718  energy(sigma->0) =      -38.54210449

 d Force = 0.2597507E-03[ 0.202E-03, 0.318E-03]  d Energy = 0.3042258E-03-0.445E-04
 d Force = 0.1439845E+01[ 0.144E+01, 0.144E+01]  d Ewald  = 0.1439846E+01-0.200E-06

 stress matrix after NEB project (eV)
     -4.87825      0.00000      0.00000
      0.00000     -4.48069      0.03473
      0.00000      0.03473     -0.34834
  FORCES: max atom, RMS     0.024084    0.011982
  FORCE total and by dimension    0.037890    0.024043
  Stress total and by dimension    6.633078    4.878254

 reached required accuracy - stopping structural energy minimisation