 vasp.6.3.2 27Jun22 (build Aug 17 2022 15:43:34) complex

 executed on           tv2STDVTST date 2025.02.04  14:08:01

 INCAR:
   ISTART = 0
   ICHARG = 2
   IPIPOL = 3
   IVDW = 11
   ISPIN = 2
   ENCUT = 400
   PREC = Normal
   EDIFF = 2E-04
   GGA = PE
   ISMEAR = 1
   SIGMA = 0.2
   LREAL = .FALSE.
   ISYM = 1
   NSW = 800
   IBRION = 2
   POTIM = 0.5
   ISIF = 2
   EDIFFG = -.03
   NPAR = 4
   LWAVE = .FALSE.
   LCHARG = .FALSE.

 POTCAR:    PAW_PBE Cu 22Jun2005
 POTCAR:    PAW_PBE H 15Jun2001
|           W    W    AA    RRRRR   N    N  II  N    N   GGGG   !!!           |
|           W    W   A  A   R    R  NN   N  II  NN   N  G    G  !!!           |
|           W    W  A    A  R    R  N N  N  II  N N  N  G       !!!           |
|           W WW W  AAAAAA  RRRRR   N  N N  II  N  N N  G  GGG   !            |
|           WW  WW  A    A  R   R   N   NN  II  N   NN  G    G                |
|           W    W  A    A  R    R  N    N  II  N    N   GGGG   !!!           |
|     You use a magnetic or noncollinear calculation, but did not specify     |
|     the initial magnetic moment with the MAGMOM tag. Note that a            |
|     default of 1 will be used for all atoms. This ferromagnetic setup       |
|     may break the symmetry of the crystal, in particular it may rule        |
|     out finding an antiferromagnetic solution. Thence, we recommend         |
|     setting the initial magnetic moment manually or verifying carefully     |
|     that this magnetic setup is desired.                                    |

   TITEL  = PAW_PBE Cu 22Jun2005
   POMASS =   63.546; ZVAL   =   11.000    mass and valenz
   ENMAX  =  295.446; ENMIN  =  221.585 eV

   TITEL  = PAW_PBE H 15Jun2001
   POMASS =    1.000; ZVAL   =    1.000    mass and valenz
   ENMAX  =  250.000; ENMIN  =  200.000 eV

  PAW_PBE Cu 22Jun2005                  :
  PAW_PBE H 15Jun2001                   :

 POSCAR: FCC Cu
  positions in cartesian coordinates
 exchange correlation table for  LEXCH =        8
   RHO(1)=    0.500       N(1)  =     2000
   RHO(2)=  100.500       N(2)  =     4000

 VTST: version 4.2, (08/11/21)

 CHAIN: initializing optimizer

 OPT: Using VASP Conjugate-Gradient optimizer
 CHAIN: Read ICHAIN            0

 POSCAR: FCC Cu
  positions in cartesian coordinates

 ion  position               nearest neighbor table
   1  0.000  0.000  0.000-   2 2.57   2 2.57   2 2.57
   2  0.333  0.333  0.071-   3 2.51   3 2.51   3 2.51   1 2.57   1 2.57   1 2.57
   3  0.667  0.667  0.139-   2 2.51   2 2.51   2 2.51   4 2.53   4 2.53   4 2.53
   4  0.000  0.000  0.208-   5 2.51   5 2.51   5 2.51   3 2.53   3 2.53   3 2.53
   5  0.333  0.333  0.277-   4 2.51   4 2.51   4 2.51   6 2.53   6 2.53   6 2.53
   6  0.667  0.667  0.346-   7 2.51   7 2.51   7 2.51   5 2.53   5 2.53   5 2.53
   7  0.000  0.000  0.414-   8 2.49   8 2.49   8 2.49   6 2.51   6 2.51   6 2.51
   8  0.333  0.333  0.481-   7 2.49   7 2.49   7 2.49
   9  0.833  0.333  0.534-  10 0.75
  10  0.715  0.571  0.552-   9 0.75

  LATTYP: Found a hexagonal cell.
 ALAT       =     2.5667977333
 C/A-ratio  =    11.5593335643

  Lattice vectors:

 A1 = (  -1.2833988667,  -2.2229120434,   0.0000000000)
 A2 = (   2.5667977333,   0.0000000000,   0.0000000000)
 A3 = (   0.0000000000,   0.0000000000,  29.6704711914)

Analysis of symmetry for initial positions (statically):
 Subroutine PRICEL returns:
 Original cell was already a primitive cell.

 Routine SETGRP: Setting up the symmetry group for a
 hexagonal supercell.

 Subroutine GETGRP returns: Found  2 space group operations
 (whereof  2 operations were pure point group operations)
 out of a pool of 24 trial point group operations.

The static configuration has the point symmetry C_1h.

Analysis of symmetry for dynamics (positions and initial velocities):
 Subroutine PRICEL returns:
 Original cell was already a primitive cell.

[...]

The dynamic configuration has the point symmetry C_1h.

Analysis of structural, dynamic, and magnetic symmetry:
 Subroutine PRICEL returns:
 Original cell was already a primitive cell.

 Routine SETGRP: Setting up the symmetry group for a
 hexagonal supercell.

 Subroutine GETGRP returns: Found  2 space group operations
 (whereof  2 operations were pure point group operations)
 out of a pool of 24 trial point group operations.

The overall configuration has the point symmetry C_1h.

 Subroutine INISYM returns: Found  2 space group operations
 (whereof  2 operations are pure point group operations),
 and found     1 'primitive' translations

                                     Primitive cell

  volume of cell :     169.2928

  direct lattice vectors                    reciprocal lattice vectors
     2.566797733  0.000000000  0.000000000     0.389590495 -0.224930177  0.000000000
     1.283398867  2.222912043  0.000000000     0.000000000  0.449860355  0.000000000
     0.000000000  0.000000000 29.670471191     0.000000000  0.000000000  0.033703543

  length of vectors
     2.566797733  2.566797733 29.670471191     0.449860355  0.449860355  0.033703543

  position of ions in fractional coordinates (direct lattice)
     0.000000000  0.000000000  0.000000000
     0.333333333  0.333333333  0.070635264
     0.666666667  0.666666667  0.139085938
     0.000000000  0.000000000  0.208165116
     0.333333333  0.333333333  0.276562395
     0.666666667  0.666666667  0.345560339
     0.000000000  0.000000000  0.414005934
     0.333333333  0.333333333  0.481392695
     0.833333334  0.333333333  0.534259303
     0.714682292  0.570635416  0.552037977

  ion indices of the primitive-cell ions
   primitive index   ion index
                 1           1
                 2           2
                 3           3
                 4           4
                 5           5
                 6           6
                 7           7
                 8           8
                 9           9
                10          10

 KPOINTS: Auto-mesh

Automatic generation of k-mesh.
 Grid dimensions read from file:
 generate k-points for:    3    3    1

 Generating k-lattice:

  Cartesian coordinates                     Fractional coordinates (reciprocal lattice)
     0.129863498 -0.074976726  0.000000000     0.333333333  0.000000000  0.000000000
     0.000000000  0.149953452  0.000000000     0.000000000  0.333333333  0.000000000
     0.000000000  0.000000000  0.033703543     0.000000000  0.000000000  1.000000000

  Length of vectors
     0.149953452  0.149953452  0.033703543

  Shift w.r.t. Gamma in fractional coordinates (k-lattice)
     0.000000000  0.000000000  0.000000000

 Subroutine IBZKPT returns following result:

 Found      4 irreducible k-points:

 Following reciprocal coordinates:
            Coordinates               Weight
  0.000000  0.000000  0.000000      1.000000
  0.333333  0.000000  0.000000      4.000000
  0.000000  0.333333  0.000000      2.000000
 -0.333333  0.333333  0.000000      2.000000

 Following cartesian coordinates:
            Coordinates               Weight
  0.000000  0.000000  0.000000      1.000000
  0.129863 -0.074977  0.000000      4.000000
  0.000000  0.149953  0.000000      2.000000
 -0.129863  0.224930  0.000000      2.000000

 SYSTEM =  unknown system
 POSCAR =  FCC Cu

 Startparameter for this run:
   NWRITE =      2    write-flag & timer
   PREC   = normal    normal or accurate (medium, high low for compatibility)
   ISTART =      0    job   : 0-new  1-cont  2-samecut
   ICHARG =      2    charge: 1-file 2-atom 10-const
   ISPIN  =      2    spin polarized calculation?
   LNONCOLLINEAR =      F non collinear calculations
   LSORBIT =      F    spin-orbit coupling
   INIWAV =      1    electr: 0-lowe 1-rand  2-diag
   LASPH  =      F    aspherical Exc in radial PAW
 Electronic Relaxation 1
   ENCUT  =  400.0 eV  29.40 Ry    5.42 a.u.   4.19  4.19 48.39*2*pi/ulx,y,z
   ENINI  =  400.0     initial cutoff
   ENAUG  =  587.0 eV  augmentation charge cutoff
   NELM   =     60;   NELMIN=  2; NELMDL= -5     # of ELM steps
   EDIFF  = 0.2E-03   stopping-criterion for ELM
   LREAL  =      F    real-space projection
   NLSPLINE    = F    spline interpolate recip. space projectors
   LCOMPAT=      F    compatible to vasp.4.4
   GGA_COMPAT  = T    GGA compatible to vasp.4.4-vasp.4.6
   LMAXPAW     = -100 max onsite density
   LMAXMIX     =    2 max onsite mixed and CHGCAR
   VOSKOWN=      0    Vosko Wilk Nusair interpolation
   ROPT   =    0.00000   0.00000
 Ionic relaxation
   EDIFFG = -.3E-01   stopping-criterion for IOM
   NSW    =    800    number of steps for IOM
   NBLOCK =      1;   KBLOCK =    800    inner block; outer block
   IBRION =      2    ionic relax: 0-MD 1-quasi-New 2-CG
   NFREE  =      1    steps in history (QN), initial steepest desc. (CG)
   ISIF   =      2    stress and relaxation
   IWAVPR =     11    prediction:  0-non 1-charg 2-wave 3-comb
   ISYM   =      1    0-nonsym 1-usesym 2-fastsym
   LCORR  =      T    Harris-Foulkes like correction to forces

   POTIM  = 0.5000    time-step for ionic-motion
   TEIN   =    0.0    initial temperature
   TEBEG  =    0.0;   TEEND  =   0.0 temperature during run
   SMASS  =  -3.00    Nose mass-parameter (am)
   estimated Nose-frequenzy (Omega)   =  0.10E-29 period in steps = 0.13E+47 mass=  -0.151E-27a.u.
   SCALEE = 1.0000    scale energy and forces
   NPACO  =    256;   APACO  = 10.0  distance and # of slots for P.C.
   PSTRESS=    0.0 pullay stress

  Mass of Ions in am
   POMASS =  63.55  1.00
  Ionic Valenz
   ZVAL   =  11.00  1.00
  Atomic Wigner-Seitz radii
  virtual crystal weights
   VCA    =   1.00  1.00
   NELECT =      90.0000    total number of electrons
   NUPDOWN=      -1.0000    fix difference up-down

 DOS related values:
   EMIN   =  10.00;   EMAX   =-10.00  energy-range for DOS
   EFERMI =   0.00
   ISMEAR =     1;   SIGMA  =   0.20  broadening in eV -4-tet -1-fermi 0-gaus

 Electronic relaxation 2 (details)
   IALGO  =     38    algorithm
   LDIAG  =      T    sub-space diagonalisation (order eigenvalues)
   LSUBROT=      F    optimize rotation matrix (better conditioning)
   TURBO    =      0    0=normal 1=particle mesh
   IRESTART =      0    0=no restart 2=restart with 2 vectors
   NREBOOT  =      0    no. of reboots
   NMIN     =      0    reboot dimension
   EREF     =   0.00    reference energy to select bands
   IMIX   =      4    mixing-type and parameters
     AMIX     =   0.40;   BMIX     =  1.00
     AMIX_MAG =   1.60;   BMIX_MAG =  1.00
     AMIN     =   0.10
     WC   =   100.;   INIMIX=   1;  MIXPRE=   1;  MAXMIX= -45

 Intra band minimization:
   WEIMIN = 0.0010     energy-eigenvalue tresh-hold
   EBREAK =  0.83E-06  absolut break condition
   DEPER  =   0.30     relativ break condition

   TIME   =   0.40     timestep for ELM

  volume/ion in A,a.u.               =      16.93       114.24
  Fermi-wavevector in a.u.,A,eV,Ry     =   1.326202  2.506158 23.930072  1.758811
  Thomas-Fermi vector in A             =   2.455606

 Write flags
   LWAVE        =      F    write WAVECAR
   LDOWNSAMPLE  =      F    k-point downsampling of WAVECAR
   LCHARG       =      F    write CHGCAR
   LVTOT        =      F    write LOCPOT, total local potential
[...]
  (g-gl).g = 0.378E-01      g.g   = 0.524E-01  gl.gl    = 0.767E-01
 g(Force)  = 0.524E-01   g(Stress)= 0.000E+00 ortho     =-0.158E-02
 gamma     =   0.49236
 trial     =   1.25395
 opt step  =   1.44264  (harmonic =   1.47713) maximal distance =0.04150775
 next E    =   -40.748312   (d E  =  -0.03949)

[...]

 d Force =-0.1672196E-02[-0.311E-01, 0.278E-01]  d Energy =-0.6246302E-03-0.105E-02
 d Force =-0.5504519E+03[-0.555E+03,-0.546E+03]  d Ewald  =-0.5504497E+03-0.216E-02

[...]

 d Force =-0.4461612E-05[-0.918E-05, 0.252E-06]  d Energy = 0.3638535E-04-0.408E-04
 d Force = 0.2679931E+00[ 0.268E+00, 0.268E+00]  d Ewald  = 0.2679931E+00-0.146E-10

[...]

 d Force = 0.1255000E-05[-0.103E-05, 0.354E-05]  d Energy =-0.3924328E-04 0.405E-04
 d Force = 0.1304109E+00[ 0.130E+00, 0.130E+00]  d Ewald  = 0.1304109E+00 0.138E-09

[...]

 d Force = 0.2732443E-02[ 0.235E-02, 0.312E-02]  d Energy = 0.2902875E-02-0.170E-03
 d Force = 0.1966648E+02[ 0.196E+02, 0.197E+02]  d Ewald  = 0.1966648E+02 0.145E-06

[...]

 d Force = 0.8703712E-04[-0.404E-03, 0.578E-03]  d Energy =-0.2180517E-04 0.109E-03
 d Force =-0.2348017E+02[-0.235E+02,-0.235E+02]  d Ewald  =-0.2348017E+02 0.241E-06

[...]

 d Force =-0.3399952E-04[-0.953E-04, 0.273E-04]  d Energy = 0.3235424E-04-0.664E-04
 d Force =-0.3200949E+01[-0.320E+01,-0.320E+01]  d Ewald  =-0.3200949E+01 0.698E-09

[...]

 stress matrix after NEB project (eV)
     -4.38823     -0.00000     -0.00000
     -0.00000     -4.37427     -0.07000
     -0.00000     -0.07000      0.29694
  FORCES: max atom, RMS     0.141008    0.052858
  FORCE total and by dimension    0.167153    0.140513
  Stress total and by dimension    6.203929    4.388225
 Conjugate gradient step on ions:
 trial-energy change:   -0.001340  1 .order   -0.001064   -0.001423   -0.000705
  (g-gl).g = 0.354E-02      g.g   = 0.344E-02  gl.gl    = 0.308E-02
 g(Force)  = 0.344E-02   g(Stress)= 0.000E+00 ortho     = 0.377E-04
 gamma     =   1.14964
 trial     =   0.40846
 opt step  =   0.80932  (harmonic =   0.80932) maximal distance =0.01370933
 next E    =   -40.873237   (d E  =  -0.00141)

[...]

 d Force =-0.3032295E-04[-0.143E-03, 0.826E-04]  d Energy = 0.4329171E-04-0.736E-04
 d Force = 0.2070349E+02[ 0.207E+02, 0.207E+02]  d Ewald  = 0.2070349E+02-0.587E-06

[...]

 d Force = 0.2866839E-04[-0.335E-04, 0.909E-04]  d Energy =-0.2154414E-04 0.502E-04
 d Force =-0.1313018E+02[-0.131E+02,-0.131E+02]  d Ewald  =-0.1313018E+02 0.442E-06

[...]

 d Force =-0.9130901E-05[-0.434E-04, 0.251E-04]  d Energy =-0.3289705E-04 0.238E-04
 d Force = 0.9826700E+01[ 0.983E+01, 0.983E+01]  d Ewald  = 0.9826700E+01-0.207E-07

[...]

 d Force = 0.5419283E-03[-0.734E-03, 0.182E-02]  d Energy = 0.9480194E-03-0.406E-03
 d Force = 0.3201305E+03[ 0.320E+03, 0.321E+03]  d Ewald  = 0.3201307E+03-0.165E-03

[...]

 d Force = 0.7948803E-03[ 0.104E-04, 0.158E-02]  d Energy = 0.7340739E-03 0.608E-04
 d Force = 0.1663779E+03[ 0.166E+03, 0.167E+03]  d Ewald  = 0.1663778E+03 0.311E-04

[...]

 stress matrix after NEB project (eV)
     -4.53497     -0.00000     -0.00000
     -0.00000     -4.53746     -0.05806
     -0.00000     -0.05805     -0.57752
  FORCES: max atom, RMS     0.057002    0.034773
  FORCE total and by dimension    0.109961    0.056948
  Stress total and by dimension    6.441643    4.537464
 Conjugate gradient step on ions:
 trial-energy change:   -0.000170  1 .order   -0.000131   -0.000159   -0.000103
  (g-gl).g =-0.420E-03      g.g   = 0.983E-03  gl.gl    = 0.657E-02
 g(Force)  = 0.983E-03   g(Stress)= 0.000E+00 ortho     = 0.301E-04
 gamma     =  -0.06398
 trial     =   0.16170
 opt step  =   0.46245  (harmonic =   0.46245) maximal distance =0.00261389
 next E    =   -40.879232   (d E  =  -0.00023)

[...]

 d Force =-0.3441925E-06[-0.262E-04, 0.255E-04]  d Energy = 0.4921082E-04-0.496E-04
 d Force =-0.9660431E+01[-0.966E+01,-0.966E+01]  d Ewald  =-0.9660431E+01 0.329E-07

[...]

 eigenvalues of (default mixing * dielectric matrix)
  average eigenvalue GAMMA=   0.2220
  0.2220

[...]

 d Force =-0.4726838E-04[-0.102E-03, 0.782E-05]  d Energy =-0.3190931E-04-0.154E-04
 d Force = 0.1992335E+01[ 0.199E+01, 0.199E+01]  d Ewald  = 0.1992335E+01-0.684E-09

[...]

 d Force = 0.2442201E-06[-0.176E-04, 0.180E-04]  d Energy =-0.5236686E-04 0.526E-04
 d Force = 0.9254603E+00[ 0.925E+00, 0.925E+00]  d Ewald  = 0.9254603E+00-0.182E-09

[...]

 d Force = 0.4176370E-05[-0.305E-06, 0.866E-05]  d Energy = 0.6572393E-05-0.240E-05
 d Force =-0.4563778E+00[-0.456E+00,-0.456E+00]  d Ewald  =-0.4563778E+00 0.291E-09

 stress matrix after NEB project (eV)
     -4.52625     -0.00000     -0.00000
     -0.00000     -4.52731     -0.05252
     -0.00000     -0.05252     -0.50378
  FORCES: max atom, RMS     0.055251    0.027103
  FORCE total and by dimension    0.085707    0.055189
  Stress total and by dimension    6.422061    4.527315

[...]

 eigenvalue-minimisations  :  1080
 total energy-change (2. order) : 0.5662224E-04  (-0.1547864E-02)
 number of electron      90.0000026 magnetization       0.0000002
 augmentation part       56.1491872 magnetization       0.0000001

 Broyden mixing:
  rms(total) = 0.12639E-02    rms(broyden)= 0.12615E-02
  rms(prec ) = 0.13628E-02
  weight for this iteration     100.00

[...]

--------------------------------------- Iteration     63(   2)  ---------------------------------------

 eigenvalue-minimisations  :   568
 total energy-change (2. order) :-0.1444050E-04  (-0.1882029E-04)
 number of electron      90.0000026 magnetization       0.0000002
 augmentation part       56.1491872 magnetization       0.0000001

 Free energy of the ion-electron system (eV)
  alpha Z        PSCENC =       285.34744303
  Ewald energy   TEWEN  =     53081.66468034
  -Hartree energ DENC   =    -64019.29800937
  -exchange      EXHF   =         0.00000000
  -V(xc)+E(xc)   XCENC  =       362.92704485
  PAW double counting   =     10593.85526019   -11456.32577692
  entropy T*S    EENTRO =        -0.02694466
  eigenvalues    EBANDS =       -37.97299635
  atomic energy  EATOM  =     11152.61838693
  Solvation  Ediel_sol  =         0.00000000
  free energy    TOTEN  =       -37.21091196 eV

  energy without entropy =      -37.18396730  energy(sigma->0) =      -37.20193041

 average (electrostatic) potential at core
  the test charge radii are     0.9430  0.5201
  (the norm of the test charge is              1.0000)
       1 -68.0800       2 -68.6524       3 -68.7439       4 -68.7023       5 -68.7111
       6 -68.7658       7 -68.6942       8 -68.2340       9 -34.8115      10 -34.7410

 E-fermi :   2.0395     XC(G=0):  -8.1230     alpha+bet : -7.8182

 Fermi energy:         2.0394890379

[...]

 k-point     4 :      -0.3333    0.3333    0.0000
  band No.  band energies     occupation
      1      -2.4843      1.00000
      2      -1.5838      1.00000
      3      -1.5687      1.00000
      4      -1.5617      1.00000
      5      -1.5032      1.00000
      6      -1.4671      1.00000
      7      -1.4527      1.00000
      8      -1.4169      1.00000
      9      -1.4035      1.00000
     10      -1.3993      1.00000
     11      -1.3911      1.00000
     12      -1.3564      1.00000
     13      -1.2625      1.00000
     14      -1.1680      1.00000
     15      -1.1227      1.00000
     16      -1.0489      1.00000
     17      -0.7455      1.00000
     18      -0.7007      1.00000
     19      -0.6936      1.00000
     20      -0.6306      1.00000
     21      -0.4722      1.00000
     22      -0.3811      1.00000
     23       0.0256      1.00000
     24       0.0893      1.00000
     25       0.1968      1.00000
     26       0.2119      1.00000
     27       0.2927      1.00000
     28       0.2953      1.00000
     29       0.3246      1.00000
     30       0.3315      1.00000
     31       0.3404      1.00000
     32       0.6137      1.00000
     33       0.6930      1.00000
     34       0.8146      1.00000
     35       0.8246      1.00000
     36       0.8475      1.00000
     37       0.9170      1.00000
     38       0.9727      1.00000
     39       0.9766      1.00000
     40       1.0336      1.00000
     41       1.1051      1.00000
     42       5.7417     -0.00000
     43       5.7449     -0.00000
     44       5.7730     -0.00000
     45       5.9140     -0.00000
     46       5.9355     -0.00000
     47       6.1846     -0.00000
     48       6.3229     -0.00000
     49       6.8678     -0.00000
     50       7.0662     -0.00000
     51       7.6414      0.00000
     52       7.6576      0.00000
     53       7.7804      0.00000
     54       8.1907      0.00000
     55       8.2146      0.00000
     56       8.8170      0.00000
     57       9.1843      0.00000
     58       9.3344      0.00000
     59      10.4378      0.00000
     60      10.7886      0.00000
 Fermi energy:         2.0394890379

 spin component 2

[...]

 k-point     4 :      -0.3333    0.3333    0.0000
  band No.  band energies     occupation
      1      -2.4843      1.00000
      2      -1.5838      1.00000
      3      -1.5687      1.00000
      4      -1.5617      1.00000
      5      -1.5032      1.00000
      6      -1.4671      1.00000
      7      -1.4527      1.00000
      8      -1.4169      1.00000
      9      -1.4035      1.00000
     10      -1.3993      1.00000
     11      -1.3911      1.00000
     12      -1.3564      1.00000
     13      -1.2625      1.00000
     14      -1.1680      1.00000
     15      -1.1227      1.00000
     16      -1.0489      1.00000
     17      -0.7455      1.00000
     18      -0.7007      1.00000
     19      -0.6936      1.00000
     20      -0.6306      1.00000
     21      -0.4722      1.00000
     22      -0.3811      1.00000
     23       0.0256      1.00000
     24       0.0893      1.00000
     25       0.1968      1.00000
     26       0.2119      1.00000
     27       0.2927      1.00000
     28       0.2953      1.00000
     29       0.3246      1.00000
     30       0.3315      1.00000
     31       0.3404      1.00000
     32       0.6137      1.00000
     33       0.6930      1.00000
     34       0.8146      1.00000
     35       0.8246      1.00000
     36       0.8475      1.00000
     37       0.9170      1.00000
     38       0.9727      1.00000
     39       0.9766      1.00000
     40       1.0336      1.00000
     41       1.1051      1.00000
     42       5.7417     -0.00000
     43       5.7449     -0.00000
     44       5.7730     -0.00000
     45       5.9140     -0.00000
     46       5.9355     -0.00000
     47       6.1846     -0.00000
     48       6.3229     -0.00000
     49       6.8678     -0.00000
     50       7.0662     -0.00000
     51       7.6414      0.00000
     52       7.6576      0.00000
     53       7.7804      0.00000
     54       8.1907      0.00000
     55       8.2146      0.00000
     56       8.8170      0.00000
     57       9.1843      0.00000
     58       9.3344      0.00000
     59      10.4378      0.00000
     60      10.7886      0.00000

[...]

 soft charge-density along one line, spin component           2
         0         1         2         3         4         5         6         7         8         9
 total charge-density along one line

------------------------ aborting loop because EDIFF is reached ----------------------------------------

         DFTD3 V3.0 Rev 1
 Edisp (eV)   -3.66887

 E6    (eV) :    -1.5317
 E8    (eV) :    -2.1372
 % E8        : 58.25

  FORCE on cell =-STRESS in cart. coord.  units (eV):
  Direction    XX          YY          ZZ          XY          YZ          ZX
  Alpha Z   285.34744   285.34744   285.34744
  Ewald   58964.56009 58962.72755-64845.63642    -0.00000     1.58144    -0.00000
  Hartree 62200.62153 62199.63476-60380.87952     0.00000    -0.12741    -0.00000
  E(xc)    -520.98799  -520.99687  -521.08115    -0.00013     0.02908     0.00000
  Local  ************************124158.00888     0.00400    -0.47555    -0.00000
  n-local  -174.83803  -174.80895  -180.18906     4.01798    -0.14693     1.32017
  augment   759.79014   759.78489   753.57039    -0.00385     0.00451     0.00001
  Kinetic   742.41649   742.48366   734.09475   -15.22809    -0.93653     2.59482
  Fock        0.00000     0.00000     0.00000     0.00000     0.00000     0.00000
  vdW        -4.32739    -4.38500    -3.76563     0.00000     0.01519     0.00000
  Total      -4.52363    -4.52453    -0.53033    -0.00000    -0.05619    -0.00000
  in kB     -42.81138   -42.81995    -5.01904    -0.00000    -0.53174    -0.00000

 VOLUME and BASIS-vectors are now :
  energy-cutoff  :      400.00
  volume of cell :      169.29
      direct lattice vectors                 reciprocal lattice vectors
     2.566797733  0.000000000  0.000000000     0.389590495 -0.224930177  0.000000000
     1.283398867  2.222912043  0.000000000     0.000000000  0.449860355  0.000000000
     0.000000000  0.000000000 29.670471191     0.000000000  0.000000000  0.033703543

  length of vectors
     2.566797733  2.566797733 29.670471191     0.449860355  0.449860355  0.033703543

 FORCES acting on ions
    electron-ion (+dipol)            ewald-force                    non-local-force                 convergence-correction
   -.705E-05 0.415E-02 0.607E+04   0.104E-07 -.558E-02 -.606E+04   0.198E-13 0.879E-03 -.363E+01   0.204E-06 0.867E-03 -.402E-01
   0.791E-05 -.572E-01 0.436E+04   -.261E-07 0.608E-01 -.436E+04   -.111E-12 -.494E-02 0.217E+00   0.381E-06 0.178E-02 0.168E+00
   -.451E-05 -.665E-01 0.266E+04   0.249E-07 0.690E-01 -.266E+04   -.844E-13 -.375E-02 0.236E-01   0.452E-06 0.231E-02 0.357E+00
   -.765E-05 -.614E-02 0.981E+03   0.479E-09 0.784E-02 -.981E+03   -.280E-13 -.125E-02 -.761E+00   0.242E-08 0.857E-03 0.429E+00
   0.104E-04 -.169E-01 -.721E+03   -.251E-07 0.132E-01 0.719E+03   0.194E-12 0.861E-02 0.835E+00   -.974E-06 -.497E-02 0.439E+00
   0.447E-05 -.188E-01 -.241E+04   0.252E-07 0.191E-01 0.241E+04   0.672E-14 0.299E-03 -.213E-01   -.340E-06 -.795E-03 0.391E+00
   -.176E-04 0.260E+00 -.412E+04   0.945E-09 -.270E+00 0.412E+04   0.301E-12 0.134E-01 0.444E-01   -.669E-06 -.331E-02 0.214E+00
   0.214E-04 0.786E-01 -.583E+04   -.113E-07 -.733E-01 0.583E+04   -.818E-13 -.363E-02 0.439E+01   0.272E-06 0.460E-03 -.174E-01
   -.317E-06 0.215E+01 -.503E+03   0.747E-09 -.279E+01 0.499E+03   0.146E-10 0.648E+00 0.474E+01   0.272E-07 0.215E-03 -.202E-01
   0.169E-06 -.233E+01 -.485E+03   -.217E-09 0.296E+01 0.490E+03   -.148E-10 -.657E+00 -.481E+01   -.395E-07 -.343E-03 -.270E-01
   0.715E-05 0.226E-02 -.291E+01   0.219E-12 -.560E-13 0.114E-12   0.184E-13 0.821E-03 0.102E+01   -.684E-06 -.293E-02 0.189E+01

 POSITION                                       TOTAL-FORCE (eV/Angst)
      0.00000      0.00191     -0.01173         0.000000      0.000294     -0.003290
      1.28340      0.74267      1.98466         0.000000      0.000582      0.006858
      2.56680      1.48579      4.01045         0.000000      0.001148     -0.010697
      0.00000      0.00882      6.04788         0.000000      0.001278      0.001504
      1.28340      0.75481      8.06642        -0.000000     -0.000036     -0.024165
      2.56680      1.50147     10.09641        -0.000000     -0.000192     -0.005764
      0.00000      0.02571     12.11039        -0.000000     -0.000438      0.007837
      1.28340      0.76304     14.09927        -0.000000     -0.002132      0.005280
      2.56680      0.90569     16.24966         0.000000      0.006772      0.005206
      2.56680      1.00632     17.00199        -0.000000     -0.007276      0.017231
    total drift:                                0.000006      0.000152      0.001897

  FREE ENERGIE OF THE ION-ELECTRON SYSTEM (eV)
  free  energy   TOTEN  =       -40.87978195 eV

  energy  without entropy=      -40.85283729  energy(sigma->0) =      -40.87080040

 d Force = 0.8026887E-04[ 0.283E-04, 0.132E-03]  d Energy = 0.9422629E-04-0.140E-04
 d Force =-0.3521872E+01[-0.352E+01,-0.352E+01]  d Ewald  =-0.3521872E+01 0.302E-07

 stress matrix after NEB project (eV)
     -4.52363     -0.00000     -0.00000
     -0.00000     -4.52453     -0.05619
     -0.00000     -0.05619     -0.53033
  FORCES: max atom, RMS     0.024165    0.011454
  FORCE total and by dimension    0.036220    0.024165
  Stress total and by dimension    6.420452    4.524535
 Conjugate gradient step on ions:
 trial-energy change:   -0.000094  1 .order   -0.000080   -0.000132   -0.000028
  (g-gl).g = 0.299E-03      g.g   = 0.354E-03  gl.gl    = 0.983E-03
 g(Force)  = 0.354E-03   g(Stress)= 0.000E+00 ortho     =-0.273E-04
 gamma     =   0.30439
 trial     =   0.38208
 opt step  =   0.48617  (harmonic =   0.48617) maximal distance =0.00108972
 next E    =   -40.879772   (d E  =  -0.00008)

 reached required accuracy - stopping structural energy minimisation