 vasp.6.3.2 27Jun22 (build Aug 17 2022 15:43:34) complex

 executed on           tv2STDVTST date 2025.02.04  13:40:27

 INCAR:
   ISTART = 0
   ICHARG = 2
   IPIPOL = 3
   IVDW = 11
   ISPIN = 2
   ENCUT = 400
   PREC = Normal
   EDIFF = 2E-04
   GGA = PE
   ISMEAR = 1
   SIGMA = 0.2
   LREAL = .FALSE.
   ISYM = 1
   NSW = 800
   IBRION = 2
   POTIM = 0.5
   ISIF = 2
   EDIFFG = -.03
   NPAR = 4
   LWAVE = .FALSE.
   LCHARG = .FALSE.

 POTCAR:    PAW_PBE Cu 22Jun2005
 POTCAR:    PAW_PBE H 15Jun2001
|           W    W    AA    RRRRR   N    N  II  N    N   GGGG   !!!           |
|           W    W   A  A   R    R  NN   N  II  NN   N  G    G  !!!           |
|           W    W  A    A  R    R  N N  N  II  N N  N  G       !!!           |
|           W WW W  AAAAAA  RRRRR   N  N N  II  N  N N  G  GGG   !            |
|           WW  WW  A    A  R   R   N   NN  II  N   NN  G    G                |
|           W    W  A    A  R    R  N    N  II  N    N   GGGG   !!!           |
|     You use a magnetic or noncollinear calculation, but did not specify     |
|     the initial magnetic moment with the MAGMOM tag. Note that a            |
|     default of 1 will be used for all atoms. This ferromagnetic setup       |
|     may break the symmetry of the crystal, in particular it may rule        |
|     out finding an antiferromagnetic solution. Thence, we recommend         |
|     setting the initial magnetic moment manually or verifying carefully     |
|     that this magnetic setup is desired.                                    |

   TITEL  = PAW_PBE Cu 22Jun2005
   POMASS =   63.546; ZVAL   =   11.000    mass and valenz
   ENMAX  =  295.446; ENMIN  =  221.585 eV

   TITEL  = PAW_PBE H 15Jun2001
   POMASS =    1.000; ZVAL   =    1.000    mass and valenz
   ENMAX  =  250.000; ENMIN  =  200.000 eV

  PAW_PBE Cu 22Jun2005                  :
  PAW_PBE H 15Jun2001                   :

 POSCAR: FCC Cu
  positions in cartesian coordinates
 exchange correlation table for  LEXCH =        8
   RHO(1)=    0.500       N(1)  =     2000
   RHO(2)=  100.500       N(2)  =     4000

 VTST: version 4.2, (08/11/21)

 CHAIN: initializing optimizer

 OPT: Using VASP Conjugate-Gradient optimizer
 CHAIN: Read ICHAIN            0

 POSCAR: FCC Cu
  positions in cartesian coordinates

 ion  position               nearest neighbor table
   1  0.000  0.000  0.000-   3 2.51   2 2.57   2 2.57   2 2.57   2 2.57
   2  0.500  0.500  0.054-   4 2.50   3 2.54   3 2.54   3 2.54   3 2.54   1 2.57   1 2.57   1 2.57
                             1 2.57
   3  0.000  0.000  0.105-   1 2.51   2 2.54   2 2.54   2 2.54   2 2.54   5 2.54   4 2.56   4 2.56
                             4 2.56   4 2.56
   4  0.500  0.500  0.158-   2 2.50   6 2.52   5 2.56   5 2.56   5 2.56   5 2.56   3 2.56   3 2.56
                             3 2.56   3 2.56
   5  0.000  0.000  0.211-   3 2.54   6 2.55   6 2.55   6 2.55   6 2.55   7 2.55   4 2.56   4 2.56
                             4 2.56   4 2.56
   6  0.500  0.500  0.263-   8 2.44   4 2.52   5 2.55   5 2.55   5 2.55   5 2.55   7 2.58   7 2.58
                             7 2.58   7 2.58
   7  0.000  0.000  0.317-   8 2.50   8 2.50   8 2.50   8 2.50   5 2.55   6 2.58   6 2.58   6 2.58
                             6 2.58
   8  0.500  0.500  0.365-   6 2.44   7 2.50   7 2.50   7 2.50   7 2.50
   9  1.000  0.500  0.427-  10 0.75
  10  1.000  0.706  0.449-   9 0.75

  LATTYP: Found a simple orthorhombic cell.
 ALAT       =     2.5667977333
 B/A-ratio  =     1.4142135422
 C/A-ratio  =     9.3438571494

  Lattice vectors:

 A1 = (   0.0000000000,  -2.5667977333,   0.0000000000)
 A2 = (   3.6300001144,   0.0000000000,   0.0000000000)
 A3 = (   0.0000000000,   0.0000000000,  23.9837913513)

Analysis of symmetry for initial positions (statically):
 Subroutine PRICEL returns:
 Original cell was already a primitive cell.

 Routine SETGRP: Setting up the symmetry group for a
 simple orthorhombic supercell.

 Subroutine GETGRP returns: Found  2 space group operations
 (whereof  2 operations were pure point group operations)
 out of a pool of  8 trial point group operations.

The static configuration has the point symmetry C_1h.

Analysis of symmetry for dynamics (positions and initial velocities):
 Subroutine PRICEL returns:
 Original cell was already a primitive cell.

[...]

The dynamic configuration has the point symmetry C_1h.

Analysis of structural, dynamic, and magnetic symmetry:
 Subroutine PRICEL returns:
 Original cell was already a primitive cell.

 Routine SETGRP: Setting up the symmetry group for a
 simple orthorhombic supercell.

 Subroutine GETGRP returns: Found  2 space group operations
 (whereof  2 operations were pure point group operations)
 out of a pool of  8 trial point group operations.

The overall configuration has the point symmetry C_1h.

 Subroutine INISYM returns: Found  2 space group operations
 (whereof  2 operations are pure point group operations),
 and found     1 'primitive' translations

                                     Primitive cell

  volume of cell :     223.4684

  direct lattice vectors                    reciprocal lattice vectors
     3.630000114  0.000000000  0.000000000     0.275482085  0.000000000  0.000000000
     0.000000000  2.566797733  0.000000000     0.000000000  0.389590495  0.000000000
     0.000000000  0.000000000 23.983791351     0.000000000  0.000000000  0.041694826

  length of vectors
     3.630000114  2.566797733 23.983791351     0.275482085  0.389590495  0.041694826

  position of ions in fractional coordinates (direct lattice)
     0.000000000  0.000000000  0.000000000
     0.500000000  0.500000000  0.053511090
     0.000000000  0.000000000  0.104681476
     0.500000000  0.500000000  0.157929955
     0.000000000  0.000000000  0.210708991
     0.500000000  0.500000000  0.262890478
     0.000000000  0.000000000  0.317115916
     0.500000000  0.500000000  0.364675901
     1.000000000  0.500000000  0.426907920
     1.000000000  0.705509632  0.448902010

  ion indices of the primitive-cell ions
   primitive index   ion index
                 1           1
                 2           2
                 3           3
                 4           4
                 5           5
                 6           6
                 7           7
                 8           8
                 9           9
                10          10

 KPOINTS: Auto-mesh

Automatic generation of k-mesh.
 Grid dimensions read from file:
 generate k-points for:    3    3    1

 Generating k-lattice:

  Cartesian coordinates                     Fractional coordinates (reciprocal lattice)
     0.091827362  0.000000000  0.000000000     0.333333333  0.000000000  0.000000000
     0.000000000  0.129863498  0.000000000     0.000000000  0.333333333  0.000000000
     0.000000000  0.000000000  0.041694826     0.000000000  0.000000000  1.000000000

  Length of vectors
     0.091827362  0.129863498  0.041694826

  Shift w.r.t. Gamma in fractional coordinates (k-lattice)
     0.000000000  0.000000000  0.000000000

 Subroutine IBZKPT returns following result:

 Found      4 irreducible k-points:

 Following reciprocal coordinates:
            Coordinates               Weight
  0.000000  0.000000  0.000000      1.000000
  0.333333  0.000000  0.000000      2.000000
  0.000000  0.333333  0.000000      2.000000
  0.333333  0.333333  0.000000      4.000000

 Following cartesian coordinates:
            Coordinates               Weight
  0.000000  0.000000  0.000000      1.000000
  0.091827  0.000000  0.000000      2.000000
  0.000000  0.129863  0.000000      2.000000
  0.091827  0.129863  0.000000      4.000000

 SYSTEM =  unknown system
 POSCAR =  FCC Cu

 Startparameter for this run:
   NWRITE =      2    write-flag & timer
   PREC   = normal    normal or accurate (medium, high low for compatibility)
   ISTART =      0    job   : 0-new  1-cont  2-samecut
   ICHARG =      2    charge: 1-file 2-atom 10-const
   ISPIN  =      2    spin polarized calculation?
   LNONCOLLINEAR =      F non collinear calculations
   LSORBIT =      F    spin-orbit coupling
   INIWAV =      1    electr: 0-lowe 1-rand  2-diag
   LASPH  =      F    aspherical Exc in radial PAW
 Electronic Relaxation 1
   ENCUT  =  400.0 eV  29.40 Ry    5.42 a.u.   5.92  4.19 39.11*2*pi/ulx,y,z
   ENINI  =  400.0     initial cutoff
   ENAUG  =  587.0 eV  augmentation charge cutoff
   NELM   =     60;   NELMIN=  2; NELMDL= -5     # of ELM steps
   EDIFF  = 0.2E-03   stopping-criterion for ELM
   LREAL  =      F    real-space projection
   NLSPLINE    = F    spline interpolate recip. space projectors
   LCOMPAT=      F    compatible to vasp.4.4
   GGA_COMPAT  = T    GGA compatible to vasp.4.4-vasp.4.6
   LMAXPAW     = -100 max onsite density
   LMAXMIX     =    2 max onsite mixed and CHGCAR
   VOSKOWN=      0    Vosko Wilk Nusair interpolation
   ROPT   =    0.00000   0.00000
 Ionic relaxation
   EDIFFG = -.3E-01   stopping-criterion for IOM
   NSW    =    800    number of steps for IOM
   NBLOCK =      1;   KBLOCK =    800    inner block; outer block
   IBRION =      2    ionic relax: 0-MD 1-quasi-New 2-CG
   NFREE  =      1    steps in history (QN), initial steepest desc. (CG)
   ISIF   =      2    stress and relaxation
   IWAVPR =     11    prediction:  0-non 1-charg 2-wave 3-comb
   ISYM   =      1    0-nonsym 1-usesym 2-fastsym
   LCORR  =      T    Harris-Foulkes like correction to forces

   POTIM  = 0.5000    time-step for ionic-motion
   TEIN   =    0.0    initial temperature
   TEBEG  =    0.0;   TEEND  =   0.0 temperature during run
   SMASS  =  -3.00    Nose mass-parameter (am)
   estimated Nose-frequenzy (Omega)   =  0.10E-29 period in steps = 0.13E+47 mass=  -0.301E-27a.u.
   SCALEE = 1.0000    scale energy and forces
   NPACO  =    256;   APACO  = 10.0  distance and # of slots for P.C.
   PSTRESS=    0.0 pullay stress

  Mass of Ions in am
   POMASS =  63.55  1.00
  Ionic Valenz
   ZVAL   =  11.00  1.00
  Atomic Wigner-Seitz radii
  virtual crystal weights
   VCA    =   1.00  1.00
   NELECT =      90.0000    total number of electrons
   NUPDOWN=      -1.0000    fix difference up-down

 DOS related values:
   EMIN   =  10.00;   EMAX   =-10.00  energy-range for DOS
   EFERMI =   0.00
   ISMEAR =     1;   SIGMA  =   0.20  broadening in eV -4-tet -1-fermi 0-gaus

 Electronic relaxation 2 (details)
   IALGO  =     38    algorithm
   LDIAG  =      T    sub-space diagonalisation (order eigenvalues)
   LSUBROT=      F    optimize rotation matrix (better conditioning)
   TURBO    =      0    0=normal 1=particle mesh
   IRESTART =      0    0=no restart 2=restart with 2 vectors
   NREBOOT  =      0    no. of reboots
   NMIN     =      0    reboot dimension
   EREF     =   0.00    reference energy to select bands
   IMIX   =      4    mixing-type and parameters
     AMIX     =   0.40;   BMIX     =  1.00
     AMIX_MAG =   1.60;   BMIX_MAG =  1.00
     AMIN     =   0.10
     WC   =   100.;   INIMIX=   1;  MIXPRE=   1;  MAXMIX= -45

 Intra band minimization:
   WEIMIN = 0.0010     energy-eigenvalue tresh-hold
   EBREAK =  0.83E-06  absolut break condition
   DEPER  =   0.30     relativ break condition

   TIME   =   0.40     timestep for ELM

[...]
  (g-gl).g = 0.378E-02      g.g   = 0.115E-01  gl.gl    = 0.425E-01
 g(Force)  = 0.115E-01   g(Stress)= 0.000E+00 ortho     = 0.108E-03
 gamma     =   0.08874
 trial     =   1.15597
 opt step  =   1.13843  (harmonic =   1.13843) maximal distance =0.01384661
 next E    =   -38.449893   (d E  =  -0.00658)

[...]

 d Force =-0.2518711E-04[-0.535E-04, 0.312E-05]  d Energy =-0.1470576E-04-0.105E-04
 d Force = 0.1014911E+01[ 0.101E+01, 0.101E+01]  d Ewald  = 0.1014911E+01 0.364E-09

[...]

 d Force =-0.1301524E-02[-0.163E-01, 0.136E-01]  d Energy =-0.2578152E-03-0.104E-02
 d Force =-0.2200470E+03[-0.221E+03,-0.219E+03]  d Ewald  =-0.2200476E+03 0.635E-03

[...]

 d Force = 0.3712704E-02[-0.141E-02, 0.883E-02]  d Energy = 0.3898437E-02-0.186E-03
 d Force = 0.1197474E+03[ 0.120E+03, 0.120E+03]  d Ewald  = 0.1197475E+03-0.103E-03

[...]

 d Force =-0.4786365E-05[-0.489E-03, 0.479E-03]  d Energy = 0.5420191E-04-0.590E-04
 d Force = 0.1031281E+03[ 0.103E+03, 0.103E+03]  d Ewald  = 0.1031281E+03-0.173E-06

[...]

 d Force =-0.8842879E-05[-0.264E-03, 0.247E-03]  d Energy = 0.1038298E-06-0.895E-05
 d Force =-0.5206054E+02[-0.521E+02,-0.520E+02]  d Ewald  =-0.5206054E+02 0.222E-07

[...]

 d Force = 0.1871600E-04[-0.609E-04, 0.983E-04]  d Energy =-0.9720845E-05 0.284E-04
 d Force =-0.1512085E+02[-0.151E+02,-0.151E+02]  d Ewald  =-0.1512085E+02 0.633E-09

[...]

 d Force =-0.7250698E-07[-0.183E-03, 0.183E-03]  d Energy =-0.8687013E-04 0.868E-04
 d Force =-0.7156559E+01[-0.716E+01,-0.716E+01]  d Ewald  =-0.7156559E+01 0.710E-07

[...]

 d Force =-0.3723382E-05[-0.465E-04, 0.391E-04]  d Energy = 0.1822695E-05-0.555E-05
 d Force =-0.1789902E+01[-0.179E+01,-0.179E+01]  d Ewald  =-0.1789902E+01 0.931E-09

[...]

 d Force = 0.8947237E-03[ 0.450E-03, 0.134E-02]  d Energy = 0.1049937E-02-0.155E-03
 d Force = 0.4837849E+01[ 0.483E+01, 0.484E+01]  d Ewald  = 0.4837837E+01 0.125E-04

[...]

 d Force = 0.6429531E-04[-0.123E-03, 0.252E-03]  d Energy =-0.1498256E-03 0.214E-03
 d Force = 0.3217581E+01[ 0.321E+01, 0.322E+01]  d Ewald  = 0.3217577E+01 0.385E-05

[...]

 stress matrix after NEB project (eV)
     -5.06015      0.00000      0.00000
      0.00000     -4.62621     -0.07427
      0.00000     -0.07427     -0.73906
  FORCES: max atom, RMS     0.176196    0.080007
  FORCE total and by dimension    0.253003    0.171731
  Stress total and by dimension    6.896675    5.060148
 Conjugate gradient step on ions:
 trial-energy change:   -0.001327  1 .order   -0.000781   -0.002952    0.001391
  (g-gl).g = 0.279E-02      g.g   = 0.320E-02  gl.gl    = 0.446E-02
 g(Force)  = 0.320E-02   g(Stress)= 0.000E+00 ortho     = 0.433E-04
 gamma     =   0.62518
 trial     =   0.91449
 opt step  =   0.62161  (harmonic =   0.62161) maximal distance =0.01347008
 next E    =   -38.541586   (d E  =  -0.00100)

[...]

 stress matrix after NEB project (eV)
     -4.63626      0.00000      0.00000
      0.00000     -4.20777     -0.06095
      0.00000     -0.06095     -0.23963
  FORCES: max atom, RMS     0.095565    0.041522
  FORCE total and by dimension    0.131305    0.092804
  Stress total and by dimension    6.266190    4.636263
 Conjugate gradient step on ions:
 trial-energy change:   -0.001103  1 .order   -0.000871   -0.001440   -0.000301
  (g-gl).g = 0.242E-02      g.g   = 0.169E-02  gl.gl    = 0.320E-02
 g(Force)  = 0.169E-02   g(Stress)= 0.000E+00 ortho     =-0.537E-04
 gamma     =   0.75666
 trial     =   0.87329
 opt step  =   1.10376  (harmonic =   1.10376) maximal distance =0.01290524
 next E    =   -38.542952   (d E  =  -0.00091)

[...]

 d Force = 0.6616561E-04[ 0.530E-04, 0.794E-04]  d Energy = 0.7066141E-04-0.450E-05
 d Force =-0.2055111E+01[-0.206E+01,-0.205E+01]  d Ewald  =-0.2055110E+01-0.898E-06

[...]

 eigenvalues of (default mixing * dielectric matrix)
  average eigenvalue GAMMA=   0.5700
  0.5700

[...]

 d Force = 0.1496634E-04[-0.760E-04, 0.106E-03]  d Energy =-0.5249134E-04 0.675E-04
 d Force =-0.4112714E+01[-0.411E+01,-0.411E+01]  d Ewald  =-0.4112710E+01-0.435E-05

[...]

 d Force = 0.9647242E-05[-0.124E-04, 0.317E-04]  d Energy = 0.2674301E-04-0.171E-04
 d Force = 0.1718375E+01[ 0.172E+01, 0.172E+01]  d Ewald  = 0.1718375E+01 0.317E-06

[...]

 stress matrix after NEB project (eV)
     -4.92414      0.00000      0.00000
      0.00000     -4.49401     -0.03622
      0.00000     -0.03622     -0.32503
  FORCES: max atom, RMS     0.112720    0.048616
  FORCE total and by dimension    0.153736    0.112173
  Stress total and by dimension    6.674696    4.924142
 Conjugate gradient step on ions:
 trial-energy change:    0.000043  1 .order    0.000110   -0.000523    0.000742
  (g-gl).g =-0.197E-03      g.g   = 0.545E-03  gl.gl    = 0.169E-02
 g(Force)  = 0.545E-03   g(Stress)= 0.000E+00 ortho     = 0.646E-04
 gamma     =  -0.11658
 trial     =   0.97306
 opt step  =   0.40230  (harmonic =   0.40230) maximal distance =0.00098905
 next E    =   -38.543298   (d E  =  -0.00011)

[...]

 d Force =-0.1760016E-04[-0.449E-04, 0.974E-05]  d Energy =-0.2240495E-04 0.480E-05
 d Force = 0.7371981E+00[ 0.737E+00, 0.737E+00]  d Ewald  = 0.7371981E+00-0.196E-08

[...]

 eigenvalue-minimisations  :   656
 total energy-change (2. order) : 0.1744384E-04  (-0.1772775E-04)
 number of electron      90.0000722 magnetization       0.0000000
 augmentation part       56.1873224 magnetization      -0.0000000

[...]

 d Force = 0.1379083E-04[-0.935E-05, 0.369E-04]  d Energy = 0.8764137E-05 0.503E-05
 d Force =-0.6059217E+00[-0.606E+00,-0.606E+00]  d Ewald  =-0.6059217E+00 0.106E-08

[...]

 Broyden mixing:
  rms(total) = 0.52895E-03    rms(broyden)= 0.52833E-03
  rms(prec ) = 0.56947E-03
  weight for this iteration     100.00

[...]

--------------------------------------- Iteration     81(   2)  ---------------------------------------

 eigenvalue-minimisations  :   584
 total energy-change (2. order) :-0.3275583E-05  (-0.3416010E-05)
 number of electron      90.0000722 magnetization       0.0000000
 augmentation part       56.1871017 magnetization      -0.0000000

 Free energy of the ion-electron system (eV)
  alpha Z        PSCENC =       216.17040255
  Ewald energy   TEWEN  =     42262.65816813
  -Hartree energ DENC   =    -52989.70797787
  -exchange      EXHF   =         0.00000000
  -V(xc)+E(xc)   XCENC  =       362.09553467
  PAW double counting   =     10521.06883979   -11382.98783104
  entropy T*S    EENTRO =        -0.00462620
  eigenvalues    EBANDS =      -177.24919218
  atomic energy  EATOM  =     11152.61838693
  Solvation  Ediel_sol  =         0.00000000
  free energy    TOTEN  =       -35.33829523 eV

  energy without entropy =      -35.33366903  energy(sigma->0) =      -35.33675316

 average (electrostatic) potential at core
  the test charge radii are     0.9430  0.5201
  (the norm of the test charge is              1.0000)
       1 -69.7236       2 -70.1876       3 -70.3292       4 -70.3422       5 -70.3412
       6 -70.3493       7 -70.2192       8 -69.8046       9 -36.4601      10 -36.3999

 E-fermi :   0.7594     XC(G=0):  -6.6176     alpha+bet : -5.9229

 Fermi energy:         0.7594083051

[...]

 k-point     4 :       0.3333    0.3333    0.0000
  band No.  band energies     occupation
      1      -4.9305      1.00000
      2      -4.8074      1.00000
      3      -4.0987      1.00000
      4      -3.5507      1.00000
      5      -3.4654      1.00000
      6      -3.1853      1.00000
      7      -3.1327      1.00000
      8      -3.0117      1.00000
      9      -2.9912      1.00000
     10      -2.8274      1.00000
     11      -2.8093      1.00000
     12      -2.5770      1.00000
     13      -2.5134      1.00000
     14      -2.3866      1.00000
     15      -2.3215      1.00000
     16      -2.2844      1.00000
     17      -2.2364      1.00000
     18      -2.1701      1.00000
     19      -2.0441      1.00000
     20      -1.9705      1.00000
     21      -1.9544      1.00000
     22      -1.9311      1.00000
     23      -1.8924      1.00000
     24      -1.7563      1.00000
     25      -1.6720      1.00000
     26      -1.5475      1.00000
     27      -1.5387      1.00000
     28      -1.2702      1.00000
     29      -1.2184      1.00000
     30      -1.1591      1.00000
     31      -1.1155      1.00000
     32      -1.0826      1.00000
     33      -1.0054      1.00000
     34      -0.9856      1.00000
     35      -0.8614      1.00000
     36      -0.7723      1.00000
     37      -0.7442      1.00000
     38      -0.6897      1.00000
     39      -0.6647      1.00000
     40      -0.6152      1.00000
     41      -0.5707      1.00000
     42      -0.5285      1.00000
     43      -0.1785      1.00000
     44       0.6710      0.83674
     45       1.7058     -0.00000
     46       2.1254     -0.00000
     47       2.6672     -0.00000
     48       3.9794     -0.00000
     49       4.0737     -0.00000
     50       5.5725     -0.00000
     51       5.6703     -0.00000
     52       6.0832     -0.00000
     53       6.8132      0.00000
     54       7.1612      0.00000
     55       7.7822      0.00000
     56       7.9533      0.00000
     57       8.3698      0.00000
     58       8.8988      0.00000
     59       9.6004      0.00000
     60       9.6800      0.00000
 Fermi energy:         0.7594083051

 spin component 2

[...]

 k-point     4 :       0.3333    0.3333    0.0000
  band No.  band energies     occupation
      1      -4.9305      1.00000
      2      -4.8074      1.00000
      3      -4.0987      1.00000
      4      -3.5507      1.00000
      5      -3.4654      1.00000
      6      -3.1853      1.00000
      7      -3.1327      1.00000
      8      -3.0117      1.00000
      9      -2.9912      1.00000
     10      -2.8274      1.00000
     11      -2.8093      1.00000
     12      -2.5770      1.00000
     13      -2.5134      1.00000
     14      -2.3866      1.00000
     15      -2.3215      1.00000
     16      -2.2844      1.00000
     17      -2.2364      1.00000
     18      -2.1701      1.00000
     19      -2.0441      1.00000
     20      -1.9705      1.00000
     21      -1.9544      1.00000
     22      -1.9311      1.00000
     23      -1.8924      1.00000
     24      -1.7563      1.00000
     25      -1.6720      1.00000
     26      -1.5475      1.00000
     27      -1.5387      1.00000
     28      -1.2702      1.00000
     29      -1.2184      1.00000
     30      -1.1591      1.00000
     31      -1.1155      1.00000
     32      -1.0826      1.00000
     33      -1.0054      1.00000
     34      -0.9856      1.00000
     35      -0.8614      1.00000
     36      -0.7723      1.00000
     37      -0.7442      1.00000
     38      -0.6897      1.00000
     39      -0.6647      1.00000
     40      -0.6152      1.00000
     41      -0.5707      1.00000
     42      -0.5285      1.00000
     43      -0.1785      1.00000
     44       0.6710      0.83674
     45       1.7058     -0.00000
     46       2.1254     -0.00000
     47       2.6672     -0.00000
     48       3.9794     -0.00000
     49       4.0737     -0.00000
     50       5.5725     -0.00000
     51       5.6703     -0.00000
     52       6.0832     -0.00000
     53       6.8132      0.00000
     54       7.1612      0.00000
     55       7.7822      0.00000
     56       7.9533      0.00000
     57       8.3698      0.00000
     58       8.8989      0.00000
     59       9.6004      0.00000
     60       9.6800      0.00000

[...]

 soft charge-density along one line, spin component           2
         0         1         2         3         4         5         6         7         8         9
 total charge-density along one line

------------------------ aborting loop because EDIFF is reached ----------------------------------------

         DFTD3 V3.0 Rev 1
 Edisp (eV)   -3.20502

 E6    (eV) :    -1.3082
 E8    (eV) :    -1.8968
 % E8        : 59.18

  FORCE on cell =-STRESS in cart. coord.  units (eV):
  Direction    XX          YY          ZZ          XY          YZ          ZX
  Alpha Z   216.17040   216.17040   216.17040
  Ewald   47987.12971 48109.51073-53833.98753     0.00000     3.10363     0.00000
  Hartree 51055.20498 51149.08661-49214.49526    -0.00000     0.48166    -0.00000
  E(xc)    -520.37170  -520.23504  -520.65011    -0.00000     0.03725    -0.00000
  Local  ************************102042.69405    -0.00000    -2.33949    -0.00000
  n-local  -179.67230  -175.24834  -180.59367     6.82699    -0.16411     0.00358
  augment   755.27288   758.57377   757.74038     0.00000    -0.01105    -0.00000
  Kinetic   738.27103   739.89182   735.56784     6.63821    -1.16284     0.00882
  Fock        0.00000     0.00000     0.00000     0.00000     0.00000     0.00000
  vdW        -3.85980    -3.89587    -2.85375     0.00000     0.00828     0.00000
  Total      -4.93201    -4.50045    -0.40765     0.00000    -0.04666     0.00000
  in kB     -35.36051   -32.26638    -2.92267     0.00000    -0.33454     0.00000

 VOLUME and BASIS-vectors are now :
  energy-cutoff  :      400.00
  volume of cell :      223.47
      direct lattice vectors                 reciprocal lattice vectors
     3.630000114  0.000000000  0.000000000     0.275482085  0.000000000  0.000000000
     0.000000000  2.566797733  0.000000000     0.000000000  0.389590495  0.000000000
     0.000000000  0.000000000 23.983791351     0.000000000  0.000000000  0.041694826

  length of vectors
     3.630000114  2.566797733 23.983791351     0.275482085  0.389590495  0.041694826

 FORCES acting on ions
    electron-ion (+dipol)            ewald-force                    non-local-force                 convergence-correction
   -.439E-13 0.215E-03 0.460E+04   -.743E-07 0.400E-02 -.459E+04   0.000E+00 -.455E-02 -.617E+01   -.134E-11 -.666E-03 -.563E-03
   0.737E-06 -.715E-01 0.352E+04   0.134E-06 0.701E-01 -.352E+04   0.000E+00 0.272E-02 0.140E+01   0.217E-10 -.914E-03 -.381E-01
   -.499E-13 -.153E-01 0.208E+04   -.125E-06 0.204E-01 -.208E+04   0.000E+00 -.582E-02 -.112E+01   0.178E-11 -.564E-03 -.757E-01
   0.753E-06 0.475E-01 0.772E+03   0.129E-06 -.488E-01 -.772E+03   0.000E+00 -.371E-02 0.239E+00   0.417E-11 0.174E-02 -.104E+00
   -.560E-13 0.997E-01 -.583E+03   -.129E-06 -.102E+00 0.584E+03   0.000E+00 -.261E-02 -.210E+00   -.370E-12 0.174E-02 -.988E-01
   0.759E-06 -.624E-01 -.189E+04   0.125E-06 0.600E-01 0.189E+04   0.000E+00 0.670E-04 0.126E+01   -.248E-10 0.212E-03 -.908E-01
   -.357E-13 -.576E-01 -.333E+04   -.133E-06 0.664E-01 0.333E+04   0.000E+00 -.101E-01 -.143E+01   -.186E-12 0.430E-04 -.621E-01
   0.800E-06 0.305E+00 -.442E+04   0.718E-07 -.335E+00 0.441E+04   0.000E+00 0.308E-01 0.666E+01   -.229E-10 -.758E-03 -.495E-02
   0.290E-07 0.276E+01 -.375E+03   0.166E-08 -.356E+01 0.371E+03   0.000E+00 0.815E+00 0.482E+01   0.635E-12 0.392E-04 0.398E-02
   0.319E-07 -.302E+01 -.371E+03   0.455E-09 0.383E+01 0.376E+03   0.000E+00 -.826E+00 -.482E+01   0.452E-12 -.528E-04 0.378E-02
   0.311E-05 -.124E-01 -.201E+00   0.318E-13 0.671E-13 0.909E-12   0.000E+00 -.522E-02 0.633E+00   -.208E-10 0.814E-03 -.468E+00

 POSITION                                       TOTAL-FORCE (eV/Angst)
      0.00000      0.00477     -0.02734         0.000000      0.001079     -0.002809
      1.81500      1.28976      1.10852         0.000000      0.002799     -0.009703
      0.00000      0.01157      2.40784         0.000000      0.000616     -0.001130
      1.81500      1.29992      3.65595         0.000000     -0.002196     -0.005026
      0.00000      0.01957      4.92114         0.000000     -0.001584      0.008940
      1.81500      1.30294      6.17089         0.000000     -0.000626      0.000295
      0.00000      0.01996      7.46978         0.000000      0.000479     -0.002200
      1.81500      1.30385      8.60101         0.000000     -0.000388     -0.005620
      3.63000      1.42478     10.62118         0.000000      0.003557     -0.009318
      3.63000      1.55078     11.36874         0.000000     -0.003735      0.026570
    total drift:                                0.000003     -0.016775     -0.035707

  FREE ENERGIE OF THE ION-ELECTRON SYSTEM (eV)
  free  energy   TOTEN  =       -38.54331401 eV

  energy  without entropy=      -38.53868781  energy(sigma->0) =      -38.54177194

 d Force =-0.1944872E-06[-0.507E-05, 0.468E-05]  d Energy = 0.4556984E-05-0.475E-05
 d Force = 0.3029636E+00[ 0.303E+00, 0.303E+00]  d Ewald  = 0.3029636E+00-0.378E-09

 stress matrix after NEB project (eV)
     -4.93201      0.00000      0.00000
      0.00000     -4.50045     -0.04666
      0.00000     -0.04666     -0.40765
  FORCES: max atom, RMS     0.026831    0.010401
  FORCE total and by dimension    0.032892    0.026570
  Stress total and by dimension    6.689492    4.932011

 reached required accuracy - stopping structural energy minimisation