 vasp.6.3.2 27Jun22 (build Aug 17 2022 15:43:34) complex

 executed on           tv2STDVTST date 2025.01.21  16:00:41

 INCAR:
   ISTART = 0
   ICHARG = 2
   IPIPOL = 3
   IVDW = 11
   IDIPOL = 3
   IVDW = 11
   ISPIN = 2
   ENCUT = 400
   PREC = Normal
   EDIFF = 2E-04
   GGA = PE
   ISMEAR = 1
   SIGMA = 0.2
   LREAL = .FALSE.
   ISYM = 1
   NSW = 800
   IBRION = 2
   POTIM = 0.5
   ISIF = 2
   EDIFFG = -.03
   NPAR = 4
   LWAVE = .FALSE.
   LCHARG = .FALSE.

 POTCAR:    PAW_PBE Cu 22Jun2005
|           W    W    AA    RRRRR   N    N  II  N    N   GGGG   !!!           |
|           W    W   A  A   R    R  NN   N  II  NN   N  G    G  !!!           |
|           W    W  A    A  R    R  N N  N  II  N N  N  G       !!!           |
|           W WW W  AAAAAA  RRRRR   N  N N  II  N  N N  G  GGG   !            |
|           WW  WW  A    A  R   R   N   NN  II  N   NN  G    G                |
|           W    W  A    A  R    R  N    N  II  N    N   GGGG   !!!           |
|     You use a magnetic or noncollinear calculation, but did not specify     |
|     the initial magnetic moment with the MAGMOM tag. Note that a            |
|     default of 1 will be used for all atoms. This ferromagnetic setup       |
|     may break the symmetry of the crystal, in particular it may rule        |
|     out finding an antiferromagnetic solution. Thence, we recommend         |
|     setting the initial magnetic moment manually or verifying carefully     |
|     that this magnetic setup is desired.                                    |

   TITEL  = PAW_PBE Cu 22Jun2005
   POMASS =   63.546; ZVAL   =   11.000    mass and valenz
   ENMAX  =  295.446; ENMIN  =  221.585 eV

  PAW_PBE Cu 22Jun2005                  :

 POSCAR: FCC Cu
  positions in cartesian coordinates
  velocities in cartesian coordinates
 exchange correlation table for  LEXCH =        8
   RHO(1)=    0.500       N(1)  =     2000
   RHO(2)=  100.500       N(2)  =     4000

 VTST: version 4.2, (08/11/21)

 CHAIN: initializing optimizer

 OPT: Using VASP Conjugate-Gradient optimizer
 CHAIN: Read ICHAIN            0

 POSCAR: FCC Cu
  positions in cartesian coordinates
  velocities in cartesian coordinates

 ion  position               nearest neighbor table
   1  0.000  0.000  0.000-   2 2.57   2 2.57   2 2.57   2 2.57   3 2.57
   2  0.500  0.500  0.060-   3 2.57   3 2.57   3 2.57   1 2.57   3 2.57   1 2.57   1 2.57   1 2.57
                             4 2.57
   3  0.000  0.000  0.120-   2 2.57   2 2.57   2 2.57   4 2.57   2 2.57   4 2.57   4 2.57   4 2.57
                             1 2.57   5 2.57
   4  0.500  0.500  0.180-   3 2.57   5 2.57   3 2.57   5 2.57   3 2.57   5 2.57   3 2.57   5 2.57
                             2 2.57   6 2.57
   5  0.000  0.000  0.240-   6 2.57   6 2.57   6 2.57   4 2.57   6 2.57   4 2.57   4 2.57   4 2.57
                             3 2.57
   6  0.500  0.500  0.300-   5 2.57   5 2.57   5 2.57   5 2.57   4 2.57

  LATTYP: Found a simple orthorhombic cell.
 ALAT       =     2.5667977333
 B/A-ratio  =     1.4142135422
 C/A-ratio  =     8.3438572982

  Lattice vectors:

 A1 = (   0.0000000000,  -2.5667977333,   0.0000000000)
 A2 = (   3.6300001144,   0.0000000000,   0.0000000000)
 A3 = (   0.0000000000,   0.0000000000,  21.4169940000)

Analysis of symmetry for initial positions (statically):
 Subroutine PRICEL returns:
 Original cell was already a primitive cell.

 Routine SETGRP: Setting up the symmetry group for a
 simple orthorhombic supercell.

 Subroutine GETGRP returns: Found  8 space group operations
 (whereof  4 operations were pure point group operations)
 out of a pool of  8 trial point group operations.

The static configuration has the point symmetry C_2v.
 The point group associated with its full space group is D_2h.

Analysis of symmetry for dynamics (positions and initial velocities):
 Subroutine PRICEL returns:
 Original cell was already a primitive cell.

[...]

The dynamic configuration has the point symmetry C_2v.
 The point group associated with its full space group is D_2h.

Analysis of constrained symmetry for selective dynamics:
 Subroutine PRICEL returns:
 Original cell was already a primitive cell.

[...]

The constrained configuration has the point symmetry C_2v.

Analysis of structural, dynamic, and magnetic symmetry:
 Subroutine PRICEL returns:
 Original cell was already a primitive cell.

 Routine SETGRP: Setting up the symmetry group for a
 simple orthorhombic supercell.

 Subroutine GETGRP returns: Found  4 space group operations
 (whereof  4 operations were pure point group operations)
 out of a pool of  8 trial point group operations.

The overall configuration has the point symmetry C_2v.

 Subroutine INISYM returns: Found  4 space group operations
 (whereof  4 operations are pure point group operations),
 and found     1 'primitive' translations

                                     Primitive cell

  volume of cell :     199.5523

  direct lattice vectors                    reciprocal lattice vectors
     3.630000114  0.000000000  0.000000000     0.275482085  0.000000000  0.000000000
     0.000000000  2.566797733  0.000000000     0.000000000  0.389590495  0.000000000
     0.000000000  0.000000000 21.416994000     0.000000000  0.000000000  0.046691893

  length of vectors
     3.630000114  2.566797733 21.416994000     0.275482085  0.389590495  0.046691893

  position of ions in fractional coordinates (direct lattice)
     0.000000000  0.000000000  0.000000000
     0.500000000  0.500000000  0.059924323
     0.000000000  0.000000000  0.119848646
     0.500000000  0.500000000  0.179772969
     0.000000000  0.000000000  0.239697292
     0.500000000  0.500000000  0.299621615

  ion indices of the primitive-cell ions
   primitive index   ion index
                 1           1
                 2           2
                 3           3
                 4           4
                 5           5
                 6           6

 KPOINTS: Auto-mesh

Automatic generation of k-mesh.
 Grid dimensions read from file:
 generate k-points for:    3    3    1

 Generating k-lattice:

  Cartesian coordinates                     Fractional coordinates (reciprocal lattice)
     0.091827362  0.000000000  0.000000000     0.333333333  0.000000000  0.000000000
     0.000000000  0.129863498  0.000000000     0.000000000  0.333333333  0.000000000
     0.000000000  0.000000000  0.046691893     0.000000000  0.000000000  1.000000000

  Length of vectors
     0.091827362  0.129863498  0.046691893

  Shift w.r.t. Gamma in fractional coordinates (k-lattice)
     0.000000000  0.000000000  0.000000000

 Subroutine IBZKPT returns following result:

 Found      4 irreducible k-points:

 Following reciprocal coordinates:
            Coordinates               Weight
  0.000000  0.000000  0.000000      1.000000
  0.333333  0.000000  0.000000      2.000000
  0.000000  0.333333  0.000000      2.000000
  0.333333  0.333333  0.000000      4.000000

 Following cartesian coordinates:
            Coordinates               Weight
  0.000000  0.000000  0.000000      1.000000
  0.091827  0.000000  0.000000      2.000000
  0.000000  0.129863  0.000000      2.000000
  0.091827  0.129863  0.000000      4.000000

 SYSTEM =  unknown system
 POSCAR =  FCC Cu

 Startparameter for this run:
   NWRITE =      2    write-flag & timer
   PREC   = normal    normal or accurate (medium, high low for compatibility)
   ISTART =      0    job   : 0-new  1-cont  2-samecut
   ICHARG =      2    charge: 1-file 2-atom 10-const
   ISPIN  =      2    spin polarized calculation?
   LNONCOLLINEAR =      F non collinear calculations
   LSORBIT =      F    spin-orbit coupling
   INIWAV =      1    electr: 0-lowe 1-rand  2-diag
   LASPH  =      F    aspherical Exc in radial PAW
 Electronic Relaxation 1
   ENCUT  =  400.0 eV  29.40 Ry    5.42 a.u.   5.92  4.19 34.93*2*pi/ulx,y,z
   ENINI  =  400.0     initial cutoff
   ENAUG  =  587.0 eV  augmentation charge cutoff
   NELM   =     60;   NELMIN=  2; NELMDL= -5     # of ELM steps
   EDIFF  = 0.2E-03   stopping-criterion for ELM
   LREAL  =      F    real-space projection
   NLSPLINE    = F    spline interpolate recip. space projectors
   LCOMPAT=      F    compatible to vasp.4.4
   GGA_COMPAT  = T    GGA compatible to vasp.4.4-vasp.4.6
   LMAXPAW     = -100 max onsite density
   LMAXMIX     =    2 max onsite mixed and CHGCAR
   VOSKOWN=      0    Vosko Wilk Nusair interpolation
   ROPT   =    0.00000
 Ionic relaxation
   EDIFFG = -.3E-01   stopping-criterion for IOM
   NSW    =    800    number of steps for IOM
   NBLOCK =      1;   KBLOCK =    800    inner block; outer block
   IBRION =      2    ionic relax: 0-MD 1-quasi-New 2-CG
   NFREE  =      1    steps in history (QN), initial steepest desc. (CG)
   ISIF   =      2    stress and relaxation
   IWAVPR =     11    prediction:  0-non 1-charg 2-wave 3-comb
   ISYM   =      1    0-nonsym 1-usesym 2-fastsym
   LCORR  =      T    Harris-Foulkes like correction to forces

   POTIM  = 0.5000    time-step for ionic-motion
   TEIN   =    0.0    initial temperature
   TEBEG  =    0.0;   TEEND  =   0.0 temperature during run
   SMASS  =  -3.00    Nose mass-parameter (am)
   estimated Nose-frequenzy (Omega)   =  0.10E-29 period in steps = 0.13E+47 mass=  -0.301E-27a.u.
   SCALEE = 1.0000    scale energy and forces
   NPACO  =    256;   APACO  = 10.0  distance and # of slots for P.C.
   PSTRESS=    0.0 pullay stress

  Mass of Ions in am
   POMASS =  63.55
  Ionic Valenz
   ZVAL   =  11.00
  Atomic Wigner-Seitz radii
  virtual crystal weights
   VCA    =   1.00
   NELECT =      66.0000    total number of electrons
   NUPDOWN=      -1.0000    fix difference up-down

 DOS related values:
   EMIN   =  10.00;   EMAX   =-10.00  energy-range for DOS
   EFERMI =   0.00
   ISMEAR =     1;   SIGMA  =   0.20  broadening in eV -4-tet -1-fermi 0-gaus

 Electronic relaxation 2 (details)
   IALGO  =     38    algorithm
   LDIAG  =      T    sub-space diagonalisation (order eigenvalues)
   LSUBROT=      F    optimize rotation matrix (better conditioning)
   TURBO    =      0    0=normal 1=particle mesh
   IRESTART =      0    0=no restart 2=restart with 2 vectors
   NREBOOT  =      0    no. of reboots
   NMIN     =      0    reboot dimension
   EREF     =   0.00    reference energy to select bands
   IMIX   =      4    mixing-type and parameters
     AMIX     =   0.40;   BMIX     =  1.00
     AMIX_MAG =   1.60;   BMIX_MAG =  1.00
     AMIN     =   0.10
     WC   =   100.;   INIMIX=   1;  MIXPRE=   1;  MAXMIX= -45

 Intra band minimization:
   WEIMIN = 0.0010     energy-eigenvalue tresh-hold
   EBREAK =  0.11E-05  absolut break condition
   DEPER  =   0.30     relativ break condition

   TIME   =   0.40     timestep for ELM

  volume/ion in A,a.u.               =      33.26       224.44
  Fermi-wavevector in a.u.,A,eV,Ry     =   1.132150  2.139453 17.439445  1.281763
  Thomas-Fermi vector in A             =   2.268850

 Write flags
   LWAVE        =      F    write WAVECAR
   LDOWNSAMPLE  =      F    k-point downsampling of WAVECAR
   LCHARG       =      F    write CHGCAR
   LVTOT        =      F    write LOCPOT, total local potential
[...]
  Ewald   29115.74550 29327.25360-33477.02922     0.00000    -0.00000     0.00000
  Hartree 31361.94599 31508.74156-29971.19853    -0.00000    -0.00000    -0.00000
  E(xc)    -385.21607  -385.02901  -385.71410    -0.00000     0.00000    -0.00000
  Local  -61193.66112-61558.38449 62728.84459     0.00000     0.00000    -0.00000
  n-local  -136.59954  -131.58500  -136.49465     4.42949     0.00000    -0.00000
  augment   565.59165   567.84626   568.24966    -0.00000    -0.00000    -0.00000
  Kinetic   536.32150   537.01654   539.97877     4.68320    -0.00000     0.00000
  Fock        0.00000     0.00000     0.00000     0.00000     0.00000     0.00000
  vdW        -2.39439    -2.54164    -1.40233    -0.00000     0.00000    -0.00000
  Total      -6.33213    -4.74782    -2.83146     0.00000     0.00000     0.00000
  in kB     -50.83977   -38.11959   -22.73336     0.00000     0.00000     0.00000

 VOLUME and BASIS-vectors are now :
  energy-cutoff  :      400.00
  volume of cell :      199.55
      direct lattice vectors                 reciprocal lattice vectors
     3.630000114  0.000000000  0.000000000     0.275482085  0.000000000  0.000000000
     0.000000000  2.566797733  0.000000000     0.000000000  0.389590495  0.000000000
     0.000000000  0.000000000 21.416994000     0.000000000  0.000000000  0.046691893

[...]

 FORCES acting on ions
    electron-ion (+dipol)            ewald-force                    non-local-force                 convergence-correction
   -.585E-13 -.732E-12 0.355E+04   -.621E-07 0.258E-07 -.355E+04   0.000E+00 0.000E+00 -.577E+01   0.132E-10 -.580E-11 -.131E-01
   0.747E-06 -.132E-05 0.229E+04   0.123E-06 -.514E-07 -.229E+04   0.000E+00 0.000E+00 0.625E+00   -.368E-10 0.335E-10 0.224E-02
   -.594E-13 0.498E-13 0.749E+03   -.123E-06 0.514E-07 -.749E+03   0.000E+00 0.000E+00 -.203E+00   0.267E-10 -.115E-10 0.158E-01
   0.758E-06 -.132E-05 -.749E+03   0.123E-06 -.514E-07 0.749E+03   0.000E+00 0.000E+00 0.210E+00   -.295E-10 0.176E-10 0.282E-01
   -.780E-13 -.578E-12 -.229E+04   -.123E-06 0.514E-07 0.229E+04   0.000E+00 0.000E+00 -.616E+00   0.266E-10 -.115E-10 0.291E-01
   0.813E-06 -.135E-05 -.355E+04   0.621E-07 -.258E-07 0.355E+04   0.000E+00 0.000E+00 0.578E+01   -.399E-10 0.370E-10 0.217E-01
   0.232E-05 -.399E-05 -.796E-01   0.499E-13 -.723E-13 -.455E-12   0.000E+00 0.000E+00 0.213E-01   -.396E-10 0.594E-10 0.840E-01

 POSITION                                       TOTAL-FORCE (eV/Angst)
      0.00000      0.00000      0.00000         0.000000      0.000000      0.617919
      1.81500      1.28340      1.28340         0.000000      0.000000     -0.359415
      0.00000      0.00000      2.56680         0.000000      0.000000     -0.123110
      1.81500      1.28340      3.85020         0.000000      0.000000      0.123136
      0.00000      0.00000      5.13360         0.000000      0.000000      0.362323
      1.81500      1.28340      6.41699         0.000000      0.000000     -0.620853
    total drift:                                0.000002     -0.000004      0.025627

  FREE ENERGIE OF THE ION-ELECTRON SYSTEM (eV)
  free  energy   TOTEN  =       -23.00415764 eV

  energy  without entropy=      -22.98599163  energy(sigma->0) =      -22.99810230

 stress matrix after NEB project (eV)
     -6.33213      0.00000      0.00000
      0.00000     -4.74782      0.00000
      0.00000      0.00000     -2.83146
  FORCES: max atom, RMS     0.620853    0.301953
  FORCE total and by dimension    0.739632    0.620853
  Stress total and by dimension    8.405642    6.332130

[...]

         DFTD3 V3.0 Rev 1
 Edisp (eV)   -1.99048

[...]

 d Force = 0.2255188E-01[ 0.187E-01, 0.264E-01]  d Energy = 0.2288202E-01-0.330E-03
 d Force =-0.5724960E+02[-0.572E+02,-0.573E+02]  d Ewald  =-0.5725355E+02 0.395E-02

 stress matrix after NEB project (eV)
     -5.15859      0.00000      0.00000
      0.00000     -3.76496      0.00000
      0.00000      0.00000     -1.79817
  FORCES: max atom, RMS     0.471728    0.215889
  FORCE total and by dimension    0.528818    0.471728
  Stress total and by dimension    6.634711    5.158589
 Steepest descent step on ions:
 trial-energy change:   -0.022882  1 .order   -0.022552   -0.026391   -0.018712
  (g-gl).g = 0.264E-01      g.g   = 0.264E-01  gl.gl    = 0.000E+00
 g(Force)  = 0.264E-01   g(Stress)= 0.000E+00 ortho     = 0.000E+00
 gamma     =   0.00000
 trial     =   1.00000
 opt step  =   3.43682  (harmonic =   3.43682) maximal distance =0.06007351
 next E    =   -23.049509   (d E  =  -0.04535)

[...]

 d Force = 0.2055028E-01[-0.450E-02, 0.456E-01]  d Energy = 0.2073201E-01-0.182E-03
 d Force =-0.1390547E+03[-0.139E+03,-0.139E+03]  d Ewald  =-0.1391146E+03 0.599E-01

[...]

 d Force = 0.1076007E-03[-0.189E-03, 0.404E-03]  d Energy = 0.2829365E-03-0.175E-03
 d Force = 0.1245453E+02[ 0.125E+02, 0.125E+02]  d Ewald  = 0.1245457E+02-0.444E-04

[...]

 d Force =-0.4811775E-04[-0.156E-03, 0.601E-04]  d Energy =-0.1075579E-03 0.594E-04
 d Force =-0.3966545E+01[-0.397E+01,-0.397E+01]  d Ewald  =-0.3966547E+01 0.143E-05

[...]

 d Force = 0.5376170E-04[-0.539E-05, 0.113E-03]  d Energy = 0.8039675E-04-0.266E-04
 d Force = 0.2865263E+01[ 0.287E+01, 0.287E+01]  d Ewald  = 0.2865263E+01-0.540E-06

[...]

 stress matrix after NEB project (eV)
     -4.59393      0.00000      0.00000
      0.00000     -3.74038      0.00000
      0.00000      0.00000     -1.59225
  FORCES: max atom, RMS     0.119786    0.066981
  FORCE total and by dimension    0.164068    0.119786
  Stress total and by dimension    6.134322    4.593932
 Conjugate gradient step on ions:
 trial-energy change:   -0.003151  1 .order   -0.002923   -0.003590   -0.002255
  (g-gl).g = 0.236E-02      g.g   = 0.247E-02  gl.gl    = 0.264E-01
 g(Force)  = 0.247E-02   g(Stress)= 0.000E+00 ortho     = 0.107E-03
 gamma     =   0.08956
 trial     =   1.44747
 opt step  =   3.89221  (harmonic =   3.89221) maximal distance =0.00808006
 next E    =   -23.052854   (d E  =  -0.00483)

[...]

 stress matrix after NEB project (eV)
     -4.43547      0.00000      0.00000
      0.00000     -3.68618      0.00000
      0.00000      0.00000     -1.18805
  FORCES: max atom, RMS     0.084752    0.048476
  FORCE total and by dimension    0.118742    0.084752
  Stress total and by dimension    5.888360    4.435472
 Conjugate gradient step on ions:
 trial-energy change:   -0.002874  1 .order   -0.002601   -0.003014   -0.002188
  (g-gl).g = 0.106E-02      g.g   = 0.131E-02  gl.gl    = 0.247E-02
 g(Force)  = 0.131E-02   g(Stress)= 0.000E+00 ortho     = 0.228E-03
 gamma     =   0.42727
 trial     =   2.13462
 opt step  =   7.79349  (harmonic =   7.79349) maximal distance =0.00000000
 next E    =   -23.060058   (d E  =  -0.00550)

[...]

 eigenvalue-minimisations  :  1072
 total energy-change (2. order) :-0.3239441E-01  (-0.3412757E-01)
 number of electron      66.0000581 magnetization       0.0000215
 augmentation part       42.1818149 magnetization       0.0000145

[...]

 Broyden mixing:
  rms(total) = 0.48413E-02    rms(broyden)= 0.48386E-02
  rms(prec ) = 0.53072E-02
  weight for this iteration     100.00

 eigenvalues of (default mixing * dielectric matrix)
  average eigenvalue GAMMA=   0.9833
  2.4219  0.8658  0.8658  0.3231  0.4399

[...]

--------------------------------------- Iteration     11(   7)  ---------------------------------------

 eigenvalue-minimisations  :   456
 total energy-change (2. order) : 0.2598830E-04  (-0.1926235E-04)
 number of electron      66.0000581 magnetization       0.0000141
 augmentation part       42.1608055 magnetization       0.0000088

 Free energy of the ion-electron system (eV)
  alpha Z        PSCENC =       131.93436261
  Ewald energy   TEWEN  =     25599.48633922
  -Hartree energ DENC   =    -33531.26222960
  -exchange      EXHF   =         0.00000000
  -V(xc)+E(xc)   XCENC  =       267.09647527
  PAW double counting   =      7820.85950892    -8466.31380173
  entropy T*S    EENTRO =        -0.01320631
  eigenvalues    EBANDS =      -188.58079461
  atomic energy  EATOM  =      8345.74584120
  Solvation  Ediel_sol  =         0.00000000
  free energy    TOTEN  =       -21.04750503 eV

  energy without entropy =      -21.03429872  energy(sigma->0) =      -21.04310293

 average (electrostatic) potential at core
  the test charge radii are     0.9430
  (the norm of the test charge is              1.0000)
       1 -70.7451       2 -71.2938       3 -71.4019       4 -71.3954       5 -71.2515
       6 -70.7937

 E-fermi :  -0.0463     XC(G=0):  -5.4368     alpha+bet : -4.7670

 Fermi energy:        -0.0463011165

[...]

 k-point     4 :       0.3333    0.3333    0.0000
  band No.  band energies     occupation
      1      -5.6343      1.00000
      2      -4.6272      1.00000
      3      -4.4154      1.00000
      4      -4.1364      1.00000
      5      -4.0138      1.00000
      6      -3.9748      1.00000
      7      -3.7248      1.00000
      8      -3.6359      1.00000
      9      -3.4225      1.00000
     10      -3.3173      1.00000
     11      -3.2879      1.00000
     12      -3.1970      1.00000
     13      -3.0313      1.00000
     14      -2.9477      1.00000
     15      -2.8606      1.00000
     16      -2.8490      1.00000
     17      -2.8200      1.00000
     18      -2.6723      1.00000
     19      -2.4055      1.00000
     20      -2.3113      1.00000
     21      -2.1778      1.00000
     22      -2.1450      1.00000
     23      -2.1109      1.00000
     24      -2.0335      1.00000
     25      -1.8876      1.00000
     26      -1.8426      1.00000
     27      -1.7361      1.00000
     28      -1.6783      1.00000
     29      -1.6264      1.00000
     30      -1.6159      1.00000
     31      -1.5948      1.00000
     32      -0.8664      1.00000
     33       0.6749     -0.00000
     34       0.9071     -0.00000
     35       2.4241     -0.00000
     36       2.8983     -0.00000
     37       4.4364     -0.00000
     38       4.9182     -0.00000
     39       5.2899     -0.00000
     40       6.5867      0.00000
     41       7.1181      0.00000
     42       7.2812      0.00000
     43       8.0440      0.00000
     44       8.4024      0.00000
 Fermi energy:        -0.0463011165

 spin component 2

[...]

 k-point     4 :       0.3333    0.3333    0.0000
  band No.  band energies     occupation
      1      -5.6343      1.00000
      2      -4.6272      1.00000
      3      -4.4154      1.00000
      4      -4.1364      1.00000
      5      -4.0138      1.00000
      6      -3.9748      1.00000
      7      -3.7248      1.00000
      8      -3.6359      1.00000
      9      -3.4225      1.00000
     10      -3.3173      1.00000
     11      -3.2879      1.00000
     12      -3.1970      1.00000
     13      -3.0313      1.00000
     14      -2.9477      1.00000
     15      -2.8606      1.00000
     16      -2.8490      1.00000
     17      -2.8200      1.00000
     18      -2.6723      1.00000
     19      -2.4055      1.00000
     20      -2.3113      1.00000
     21      -2.1778      1.00000
     22      -2.1450      1.00000
     23      -2.1109      1.00000
     24      -2.0335      1.00000
     25      -1.8876      1.00000
     26      -1.8426      1.00000
     27      -1.7361      1.00000
     28      -1.6783      1.00000
     29      -1.6264      1.00000
     30      -1.6159      1.00000
     31      -1.5948      1.00000
     32      -0.8664      1.00000
     33       0.6749     -0.00000
     34       0.9071     -0.00000
     35       2.4241     -0.00000
     36       2.8983     -0.00000
     37       4.4364     -0.00000
     38       4.9182     -0.00000
     39       5.2899     -0.00000
     40       6.5867      0.00000
     41       7.1183      0.00000
     42       7.2814      0.00000
     43       8.0457      0.00000
     44       8.4031      0.00000

[...]

 soft charge-density along one line, spin component           2
         0         1         2         3         4         5         6         7         8         9
 total charge-density along one line

------------------------ aborting loop because EDIFF is reached ----------------------------------------

 DIPCOR: dipole corrections for dipol
 direction  3 min pos   146,
 dipolmoment           0.000000      0.000000      0.009752 electrons x Angstroem
 Tr[quadrupol]      -162.490177

 energy correction for charged system         0.000000 eV
 dipol+quadrupol energy correction            0.000043 eV
 added-field ion interaction          0.000000 eV  (added to PSCEN)

  *************** adding dipol energy to TOTEN NOW ****************

         DFTD3 V3.0 Rev 1
 Edisp (eV)   -2.01377

 E6    (eV) :    -0.7868
 E8    (eV) :    -1.2270
 % E8        : 60.93

  FORCE on cell =-STRESS in cart. coord.  units (eV):
  Direction    XX          YY          ZZ          XY          YZ          ZX
  Alpha Z   131.93436   131.93436   131.93436
  Ewald   29796.37803 29970.07844-34166.97557     0.00000    -0.00000     0.00000
  Hartree 32022.47648 32146.11938-30637.42699    -0.00000    -0.00000    -0.00000
  E(xc)    -385.41885  -385.26094  -385.96325     0.00000     0.00000    -0.00000
  Local  -62536.76378-62840.25553 64084.04845    -0.00000     0.00000    -0.00000
  n-local  -134.30777  -130.14676  -134.60693     4.57397    -0.00000    -0.00000
  augment   565.74523   567.88398   568.10534    -0.00000     0.00000     0.00000
  Kinetic   537.36276   537.75873   540.71546     4.66132     0.00000    -0.00000
  Fock        0.00000     0.00000     0.00000     0.00000     0.00000     0.00000
  vdW        -2.45503    -2.54151    -1.41622     0.00000     0.00000    -0.00000
  Total      -5.04856    -4.42986    -1.58533     0.00000     0.00000     0.00000
  in kB     -40.53418   -35.56674   -12.72841     0.00000     0.00000     0.00000

 VOLUME and BASIS-vectors are now :
  energy-cutoff  :      400.00
  volume of cell :      199.55
      direct lattice vectors                 reciprocal lattice vectors
     3.630000114  0.000000000  0.000000000     0.275482085  0.000000000  0.000000000
     0.000000000  2.566797733  0.000000000     0.000000000  0.389590495  0.000000000
     0.000000000  0.000000000 21.416994000     0.000000000  0.000000000  0.046691893

  length of vectors
     3.630000114  2.566797733 21.416994000     0.275482085  0.389590495  0.046691893

 FORCES acting on ions
    electron-ion (+dipol)            ewald-force                    non-local-force                 convergence-correction
   -.290E-13 0.266E-12 0.358E+04   -.622E-07 0.258E-07 -.358E+04   0.000E+00 0.000E+00 -.598E+01   0.860E-11 -.984E-12 0.358E-01
   0.745E-06 -.131E-05 0.230E+04   0.126E-06 -.530E-07 -.231E+04   0.000E+00 0.000E+00 0.444E+00   -.546E-10 0.449E-10 0.124E+00
   -.606E-13 0.151E-12 0.761E+03   -.127E-06 0.531E-07 -.761E+03   0.000E+00 0.000E+00 -.396E+00   0.121E-09 -.393E-10 0.262E+00
   0.763E-06 -.133E-05 -.728E+03   0.121E-06 -.503E-07 0.728E+03   0.000E+00 0.000E+00 -.278E-01   -.260E-10 -.581E-10 0.237E+00
   -.612E-13 0.478E-13 -.234E+04   -.134E-06 0.570E-07 0.235E+04   0.000E+00 0.000E+00 -.186E+01   0.868E-10 -.347E-10 0.378E+00
   0.801E-06 -.134E-05 -.358E+04   0.755E-07 -.327E-07 0.357E+04   0.000E+00 0.000E+00 0.603E+01   0.606E-10 -.775E-10 0.236E+00
   0.231E-05 -.398E-05 0.522E+00   0.499E-13 -.723E-13 -.909E-12   0.000E+00 0.000E+00 -.179E+01   0.196E-09 -.166E-09 0.127E+01

 POSITION                                       TOTAL-FORCE (eV/Angst)
      0.00000      0.00000      0.00000         0.000000      0.000000      0.558333
      1.81500      1.28340      1.28340         0.000000      0.000000     -0.470716
      0.00000      0.00000      2.52780         0.000000      0.000000     -0.029179
      1.81500      1.28340      3.80792         0.000000      0.000000     -0.026846
      0.00000      0.00000      5.12471         0.000000      0.000000     -0.002289
      1.81500      1.28340      6.24527         0.000000      0.000000     -0.029304
    total drift:                                0.000002     -0.000004      0.008946

  FREE ENERGIE OF THE ION-ELECTRON SYSTEM (eV)
  free  energy   TOTEN  =       -23.06123605 eV

  energy  without entropy=      -23.04802973  energy(sigma->0) =      -23.05683394

 d Force = 0.3886526E-02[ 0.197E-02, 0.580E-02]  d Energy = 0.3806052E-02 0.805E-04
 d Force =-0.1889510E+03[-0.189E+03,-0.189E+03]  d Ewald  =-0.1889517E+03 0.702E-03

 stress matrix after NEB project (eV)
     -5.04856      0.00000      0.00000
      0.00000     -4.42986      0.00000
      0.00000      0.00000     -1.58533
  FORCES: max atom, RMS     0.029304    0.020150
  FORCE total and by dimension    0.049356    0.029304
  Stress total and by dimension    6.901082    5.048561

 reached required accuracy - stopping structural energy minimisation