 vasp.6.3.2 27Jun22 (build Aug 17 2022 15:43:34) complex

 executed on           tv2STDVTST date 2025.02.04  14:13:28

 INCAR:
   ISTART = 0
   ICHARG = 2
   IPIPOL = 3
   IVDW = 11
   ISPIN = 2
   ENCUT = 400
   PREC = Normal
   EDIFF = 2E-04
   GGA = PE
   ISMEAR = 1
   SIGMA = 0.2
   LREAL = .FALSE.
   ISYM = 1
   NSW = 800
   IBRION = 2
   POTIM = 0.5
   ISIF = 2
   EDIFFG = -.03
   NPAR = 4
   LWAVE = .FALSE.
   LCHARG = .FALSE.

 POTCAR:    PAW_PBE Cu 22Jun2005
 POTCAR:    PAW_PBE H 15Jun2001
|           W    W    AA    RRRRR   N    N  II  N    N   GGGG   !!!           |
|           W    W   A  A   R    R  NN   N  II  NN   N  G    G  !!!           |
|           W    W  A    A  R    R  N N  N  II  N N  N  G       !!!           |
|           W WW W  AAAAAA  RRRRR   N  N N  II  N  N N  G  GGG   !            |
|           WW  WW  A    A  R   R   N   NN  II  N   NN  G    G                |
|           W    W  A    A  R    R  N    N  II  N    N   GGGG   !!!           |
|     You use a magnetic or noncollinear calculation, but did not specify     |
|     the initial magnetic moment with the MAGMOM tag. Note that a            |
|     default of 1 will be used for all atoms. This ferromagnetic setup       |
|     may break the symmetry of the crystal, in particular it may rule        |
|     out finding an antiferromagnetic solution. Thence, we recommend         |
|     setting the initial magnetic moment manually or verifying carefully     |
|     that this magnetic setup is desired.                                    |

   TITEL  = PAW_PBE Cu 22Jun2005
   POMASS =   63.546; ZVAL   =   11.000    mass and valenz
   ENMAX  =  295.446; ENMIN  =  221.585 eV

   TITEL  = PAW_PBE H 15Jun2001
   POMASS =    1.000; ZVAL   =    1.000    mass and valenz
   ENMAX  =  250.000; ENMIN  =  200.000 eV

  PAW_PBE Cu 22Jun2005                  :
  PAW_PBE H 15Jun2001                   :

 POSCAR: FCC Cu
  positions in cartesian coordinates
 exchange correlation table for  LEXCH =        8
   RHO(1)=    0.500       N(1)  =     2000
   RHO(2)=  100.500       N(2)  =     4000

 VTST: version 4.2, (08/11/21)

 CHAIN: initializing optimizer

 OPT: Using VASP Conjugate-Gradient optimizer
 CHAIN: Read ICHAIN            0

 POSCAR: FCC Cu
  positions in cartesian coordinates

 ion  position               nearest neighbor table
   1  0.000  0.000  0.000-   2 2.57   2 2.57   2 2.57
   2  0.333  0.333  0.071-   3 2.51   3 2.51   3 2.51   1 2.57   1 2.57   1 2.57
   3  0.667  0.667  0.139-   2 2.51   2 2.51   2 2.51   4 2.53   4 2.53   4 2.53
   4  0.000  0.000  0.208-   5 2.51   5 2.51   5 2.51   3 2.53   3 2.53   3 2.53
   5  0.333  0.333  0.277-   4 2.51   4 2.51   4 2.51   6 2.53   6 2.53   6 2.53
   6  0.667  0.667  0.346-   7 2.51   7 2.51   7 2.51   5 2.53   5 2.53   5 2.53
   7  0.000  0.000  0.414-   8 2.49   8 2.49   8 2.49   6 2.51   6 2.51   6 2.51
   8  0.333  0.333  0.481-   7 2.49   7 2.49   7 2.49
   9  0.000  1.000  0.534-  10 0.75
  10  0.000  1.000  0.559-   9 0.75

  LATTYP: Found a hexagonal cell.
 ALAT       =     2.5667977333
 C/A-ratio  =    11.5593335643

  Lattice vectors:

 A1 = (  -1.2833988667,  -2.2229120434,   0.0000000000)
 A2 = (   2.5667977333,   0.0000000000,   0.0000000000)
 A3 = (   0.0000000000,   0.0000000000,  29.6704711914)

Analysis of symmetry for initial positions (statically):
 Subroutine PRICEL returns:
 Original cell was already a primitive cell.

 Routine SETGRP: Setting up the symmetry group for a
 hexagonal supercell.

 Subroutine GETGRP returns: Found  6 space group operations
 (whereof  6 operations were pure point group operations)
 out of a pool of 24 trial point group operations.

The static configuration has the point symmetry C_3v.

Analysis of symmetry for dynamics (positions and initial velocities):
 Subroutine PRICEL returns:
 Original cell was already a primitive cell.

[...]

The dynamic configuration has the point symmetry C_3v.

Analysis of structural, dynamic, and magnetic symmetry:
 Subroutine PRICEL returns:
 Original cell was already a primitive cell.

 Routine SETGRP: Setting up the symmetry group for a
 hexagonal supercell.

 Subroutine GETGRP returns: Found  6 space group operations
 (whereof  6 operations were pure point group operations)
 out of a pool of 24 trial point group operations.

The overall configuration has the point symmetry C_3v.

 Subroutine INISYM returns: Found  6 space group operations
 (whereof  6 operations are pure point group operations),
 and found     1 'primitive' translations

                                     Primitive cell

  volume of cell :     169.2928

  direct lattice vectors                    reciprocal lattice vectors
     2.566797733  0.000000000  0.000000000     0.389590495 -0.224930177  0.000000000
     1.283398867  2.222912043  0.000000000     0.000000000  0.449860355  0.000000000
     0.000000000  0.000000000 29.670471191     0.000000000  0.000000000  0.033703543

  length of vectors
     2.566797733  2.566797733 29.670471191     0.449860355  0.449860355  0.033703543

  position of ions in fractional coordinates (direct lattice)
     0.000000000  0.000000000  0.000000000
     0.333333333  0.333333333  0.070635264
     0.666666667  0.666666667  0.139085938
     0.000000000  0.000000000  0.208165116
     0.333333333  0.333333333  0.276562395
     0.666666667  0.666666667  0.345560339
     0.000000000  0.000000000  0.414005934
     0.333333333  0.333333333  0.481392695
     0.000000000  1.000000000  0.534259303
     0.000000000  1.000000000  0.559402146

  ion indices of the primitive-cell ions
   primitive index   ion index
                 1           1
                 2           2
                 3           3
                 4           4
                 5           5
                 6           6
                 7           7
                 8           8
                 9           9
                10          10

 KPOINTS: Auto-mesh

Automatic generation of k-mesh.
 Grid dimensions read from file:
 generate k-points for:    3    3    1

 Generating k-lattice:

  Cartesian coordinates                     Fractional coordinates (reciprocal lattice)
     0.129863498 -0.074976726  0.000000000     0.333333333  0.000000000  0.000000000
     0.000000000  0.149953452  0.000000000     0.000000000  0.333333333  0.000000000
     0.000000000  0.000000000  0.033703543     0.000000000  0.000000000  1.000000000

  Length of vectors
     0.149953452  0.149953452  0.033703543

  Shift w.r.t. Gamma in fractional coordinates (k-lattice)
     0.000000000  0.000000000  0.000000000

 Subroutine IBZKPT returns following result:

 Found      3 irreducible k-points:

 Following reciprocal coordinates:
            Coordinates               Weight
  0.000000  0.000000  0.000000      1.000000
  0.333333  0.000000  0.000000      6.000000
 -0.333333  0.333333  0.000000      2.000000

 Following cartesian coordinates:
            Coordinates               Weight
  0.000000  0.000000  0.000000      1.000000
  0.129863 -0.074977  0.000000      6.000000
 -0.129863  0.224930  0.000000      2.000000

 SYSTEM =  unknown system
 POSCAR =  FCC Cu

 Startparameter for this run:
   NWRITE =      2    write-flag & timer
   PREC   = normal    normal or accurate (medium, high low for compatibility)
   ISTART =      0    job   : 0-new  1-cont  2-samecut
   ICHARG =      2    charge: 1-file 2-atom 10-const
   ISPIN  =      2    spin polarized calculation?
   LNONCOLLINEAR =      F non collinear calculations
   LSORBIT =      F    spin-orbit coupling
   INIWAV =      1    electr: 0-lowe 1-rand  2-diag
   LASPH  =      F    aspherical Exc in radial PAW
 Electronic Relaxation 1
   ENCUT  =  400.0 eV  29.40 Ry    5.42 a.u.   4.19  4.19 48.39*2*pi/ulx,y,z
   ENINI  =  400.0     initial cutoff
   ENAUG  =  587.0 eV  augmentation charge cutoff
   NELM   =     60;   NELMIN=  2; NELMDL= -5     # of ELM steps
   EDIFF  = 0.2E-03   stopping-criterion for ELM
   LREAL  =      F    real-space projection
   NLSPLINE    = F    spline interpolate recip. space projectors
   LCOMPAT=      F    compatible to vasp.4.4
   GGA_COMPAT  = T    GGA compatible to vasp.4.4-vasp.4.6
   LMAXPAW     = -100 max onsite density
   LMAXMIX     =    2 max onsite mixed and CHGCAR
   VOSKOWN=      0    Vosko Wilk Nusair interpolation
   ROPT   =    0.00000   0.00000
 Ionic relaxation
   EDIFFG = -.3E-01   stopping-criterion for IOM
   NSW    =    800    number of steps for IOM
   NBLOCK =      1;   KBLOCK =    800    inner block; outer block
   IBRION =      2    ionic relax: 0-MD 1-quasi-New 2-CG
   NFREE  =      1    steps in history (QN), initial steepest desc. (CG)
   ISIF   =      2    stress and relaxation
   IWAVPR =     11    prediction:  0-non 1-charg 2-wave 3-comb
   ISYM   =      1    0-nonsym 1-usesym 2-fastsym
   LCORR  =      T    Harris-Foulkes like correction to forces

   POTIM  = 0.5000    time-step for ionic-motion
   TEIN   =    0.0    initial temperature
   TEBEG  =    0.0;   TEEND  =   0.0 temperature during run
   SMASS  =  -3.00    Nose mass-parameter (am)
   estimated Nose-frequenzy (Omega)   =  0.10E-29 period in steps = 0.13E+47 mass=  -0.151E-27a.u.
   SCALEE = 1.0000    scale energy and forces
   NPACO  =    256;   APACO  = 10.0  distance and # of slots for P.C.
   PSTRESS=    0.0 pullay stress

  Mass of Ions in am
   POMASS =  63.55  1.00
  Ionic Valenz
   ZVAL   =  11.00  1.00
  Atomic Wigner-Seitz radii
  virtual crystal weights
   VCA    =   1.00  1.00
   NELECT =      90.0000    total number of electrons
   NUPDOWN=      -1.0000    fix difference up-down

 DOS related values:
   EMIN   =  10.00;   EMAX   =-10.00  energy-range for DOS
   EFERMI =   0.00
   ISMEAR =     1;   SIGMA  =   0.20  broadening in eV -4-tet -1-fermi 0-gaus

 Electronic relaxation 2 (details)
   IALGO  =     38    algorithm
   LDIAG  =      T    sub-space diagonalisation (order eigenvalues)
   LSUBROT=      F    optimize rotation matrix (better conditioning)
   TURBO    =      0    0=normal 1=particle mesh
   IRESTART =      0    0=no restart 2=restart with 2 vectors
   NREBOOT  =      0    no. of reboots
   NMIN     =      0    reboot dimension
   EREF     =   0.00    reference energy to select bands
   IMIX   =      4    mixing-type and parameters
     AMIX     =   0.40;   BMIX     =  1.00
     AMIX_MAG =   1.60;   BMIX_MAG =  1.00
     AMIN     =   0.10
     WC   =   100.;   INIMIX=   1;  MIXPRE=   1;  MAXMIX= -45

 Intra band minimization:
   WEIMIN = 0.0010     energy-eigenvalue tresh-hold
   EBREAK =  0.83E-06  absolut break condition
   DEPER  =   0.30     relativ break condition

   TIME   =   0.40     timestep for ELM

  volume/ion in A,a.u.               =      16.93       114.24
  Fermi-wavevector in a.u.,A,eV,Ry     =   1.326202  2.506158 23.930072  1.758811
  Thomas-Fermi vector in A             =   2.455606

 Write flags
   LWAVE        =      F    write WAVECAR
   LDOWNSAMPLE  =      F    k-point downsampling of WAVECAR
   LCHARG       =      F    write CHGCAR
   LVTOT        =      F    write LOCPOT, total local potential
   LVHAR        =      F    write LOCPOT, Hartree potential only
[...]
 d Force =-0.2208614E+03[-0.222E+03,-0.220E+03]  d Ewald  =-0.2208617E+03 0.332E-03

 stress matrix after NEB project (eV)
     -4.72309     -0.00000     -0.00000
     -0.00000     -4.72309     -0.00000
     -0.00000     -0.00000     -0.74199
  FORCES: max atom, RMS     0.535018    0.214679
  FORCE total and by dimension    0.678873    0.535018
  Stress total and by dimension    6.720542    4.723088
 Conjugate gradient step on ions:
 trial-energy change:   -0.028468  1 .order   -0.028680   -0.034180   -0.023181
  (g-gl).g = 0.388E-01      g.g   = 0.376E-01  gl.gl    = 0.135E+00
 g(Force)  = 0.376E-01   g(Stress)= 0.000E+00 ortho     =-0.123E-02
 gamma     =   0.28745
 trial     =   0.91789
 opt step  =   2.85230  (harmonic =   2.85230) maximal distance =0.06895133
 next E    =   -40.776839   (d E  =  -0.05311)

[...]

 d Force = 0.8099225E-03[-0.727E-03, 0.235E-02]  d Energy = 0.1201759E-02-0.392E-03
 d Force = 0.9220241E+02[ 0.921E+02, 0.923E+02]  d Ewald  = 0.9220241E+02-0.723E-06

[...]

 stress matrix after NEB project (eV)
     -4.35017     -0.00000     -0.00000
     -0.00000     -4.35017      0.00000
      0.00000     -0.00000      0.81858
  FORCES: max atom, RMS     0.174228    0.109085
  FORCE total and by dimension    0.344956    0.174228
  Stress total and by dimension    6.206282    4.350165
 Conjugate gradient step on ions:
 trial-energy change:   -0.005594  1 .order   -0.005900   -0.008560   -0.003241
  (g-gl).g = 0.179E-01      g.g   = 0.176E-01  gl.gl    = 0.180E-01
 g(Force)  = 0.176E-01   g(Stress)= 0.000E+00 ortho     = 0.122E-02
 gamma     =   0.99116
 trial     =   0.45533
 opt step  =   0.73281  (harmonic =   0.73281) maximal distance =0.02773726
 next E    =   -40.847694   (d E  =  -0.00689)

[...]

 d Force =-0.2767819E-02[-0.101E-01, 0.455E-02]  d Energy =-0.2777680E-02 0.986E-05
 d Force =-0.1151910E+03[-0.116E+03,-0.115E+03]  d Ewald  =-0.1151912E+03 0.201E-03

[...]

 d Force =-0.4869517E-04[-0.176E-03, 0.782E-04]  d Energy =-0.8481180E-04 0.361E-04
 d Force = 0.2607414E+01[ 0.261E+01, 0.261E+01]  d Ewald  = 0.2607414E+01-0.140E-06

[...]

 d Force =-0.3477263E-03[-0.320E-02, 0.251E-02]  d Energy =-0.6667073E-03 0.319E-03
 d Force = 0.5147976E+02[ 0.513E+02, 0.516E+02]  d Ewald  = 0.5147978E+02-0.193E-04

[...]

 d Force = 0.8738182E-03[-0.496E-04, 0.180E-02]  d Energy = 0.9979388E-03-0.124E-03
 d Force =-0.2883345E+02[-0.289E+02,-0.288E+02]  d Ewald  =-0.2883345E+02 0.323E-05

[...]

 d Force = 0.4233943E-03[-0.336E-02, 0.421E-02]  d Energy =-0.1066492E-03 0.530E-03
 d Force = 0.1907326E+03[ 0.190E+03, 0.191E+03]  d Ewald  = 0.1907328E+03-0.143E-03

[...]

 d Force = 0.7965958E-03[ 0.101E-03, 0.149E-02]  d Energy = 0.1001931E-02-0.205E-03
 d Force =-0.8462260E+02[-0.847E+02,-0.846E+02]  d Ewald  =-0.8462261E+02 0.119E-04

[...]

 stress matrix after NEB project (eV)
     -4.45733     -0.00000     -0.00000
     -0.00000     -4.45733     -0.00000
     -0.00000     -0.00000     -0.13229
  FORCES: max atom, RMS     0.119487    0.062860
  FORCE total and by dimension    0.198780    0.119487
  Stress total and by dimension    6.305006    4.457331
 Conjugate gradient step on ions:
 trial-energy change:   -0.001905  1 .order   -0.001810   -0.002487   -0.001133
  (g-gl).g = 0.833E-03      g.g   = 0.628E-02  gl.gl    = 0.867E-02
 g(Force)  = 0.628E-02   g(Stress)= 0.000E+00 ortho     = 0.227E-03
 gamma     =   0.09608
 trial     =   0.39439
 opt step  =   0.72474  (harmonic =   0.72474) maximal distance =0.00907316
 next E    =   -40.879775   (d E  =  -0.00228)

[...]

 eigenvalues of (default mixing * dielectric matrix)
  average eigenvalue GAMMA=   0.6130
  1.0491  0.1768

[...]

 d Force = 0.9830944E-06[-0.430E-04, 0.450E-04]  d Energy =-0.1757916E-04 0.186E-04
 d Force =-0.4448119E+01[-0.445E+01,-0.445E+01]  d Ewald  =-0.4448119E+01 0.341E-07

[...]

 d Force = 0.6818943E-05[-0.738E-05, 0.210E-04]  d Energy = 0.1435078E-04-0.753E-05
 d Force = 0.2174548E+01[ 0.217E+01, 0.217E+01]  d Ewald  = 0.2174548E+01-0.416E-08

[...]

 d Force =-0.1114437E-04[-0.242E-04, 0.192E-05]  d Energy = 0.3334912E-04-0.445E-04
 d Force =-0.5650257E+00[-0.565E+00,-0.565E+00]  d Ewald  =-0.5650257E+00 0.262E-09

[...]

 eigenvalue-minimisations  :   392
 total energy-change (2. order) : 0.6770213E-05  (-0.6821614E-05)
 number of electron      89.9999977 magnetization       0.0000010
 augmentation part       56.1452618 magnetization       0.0000005

[...]

 d Force =-0.2680150E-06[-0.375E-05, 0.322E-05]  d Energy =-0.5265790E-07-0.215E-06
 d Force =-0.2617753E+00[-0.262E+00,-0.262E+00]  d Ewald  =-0.2617753E+00 0.298E-09

[...]

 d Force = 0.9568886E-06[-0.106E-06, 0.202E-05]  d Energy =-0.1057351E-05 0.201E-05
 d Force = 0.1409590E+00[ 0.141E+00, 0.141E+00]  d Ewald  = 0.1409590E+00-0.291E-10

 stress matrix after NEB project (eV)
     -4.40489     -0.00000     -0.00000
     -0.00000     -4.40489      0.00000
      0.00000      0.00000     -0.15333
  FORCES: max atom, RMS     0.034236    0.020004
  FORCE total and by dimension    0.063257    0.034236
  Stress total and by dimension    6.231340    4.404889

[...]

 Broyden mixing:
  rms(total) = 0.91926E-03    rms(broyden)= 0.91683E-03
  rms(prec ) = 0.96966E-03
  weight for this iteration     100.00

[...]

--------------------------------------- Iteration     53(   2)  ---------------------------------------

 eigenvalue-minimisations  :   440
 total energy-change (2. order) :-0.1302566E-04  (-0.1459800E-04)
 number of electron      89.9999977 magnetization       0.0000009
 augmentation part       56.1455650 magnetization       0.0000005

 Free energy of the ion-electron system (eV)
  alpha Z        PSCENC =       285.34744303
  Ewald energy   TEWEN  =     53486.93543423
  -Hartree energ DENC   =    -64422.65699979
  -exchange      EXHF   =         0.00000000
  -V(xc)+E(xc)   XCENC  =       362.95838538
  PAW double counting   =     10600.57460970   -11463.16388251
  entropy T*S    EENTRO =        -0.02672548
  eigenvalues    EBANDS =       -39.78849383
  atomic energy  EATOM  =     11152.61838693
  Solvation  Ediel_sol  =         0.00000000
  free energy    TOTEN  =       -37.20184235 eV

  energy without entropy =      -37.17511687  energy(sigma->0) =      -37.19293386

 average (electrostatic) potential at core
  the test charge radii are     0.9430  0.5201
  (the norm of the test charge is              1.0000)
       1 -68.0946       2 -68.6761       3 -68.7812       4 -68.7397       5 -68.7386
       6 -68.7844       7 -68.7056       8 -68.2297       9 -34.7447      10 -34.6800

 E-fermi :   2.0269     XC(G=0):  -8.1214     alpha+bet : -7.8182

 Fermi energy:         2.0269411212

[...]

 k-point     3 :      -0.3333    0.3333    0.0000
  band No.  band energies     occupation
      1      -2.4029      1.00000
      2      -1.6185      1.00000
      3      -1.6075      1.00000
      4      -1.6063      1.00000
      5      -1.5441      1.00000
      6      -1.4936      1.00000
      7      -1.4868      1.00000
      8      -1.4512      1.00000
      9      -1.4447      1.00000
     10      -1.4373      1.00000
     11      -1.4256      1.00000
     12      -1.4040      1.00000
     13      -1.2680      1.00000
     14      -1.1930      1.00000
     15      -1.1326      1.00000
     16      -1.0753      1.00000
     17      -0.7732      1.00000
     18      -0.7307      1.00000
     19      -0.7300      1.00000
     20      -0.6604      1.00000
     21      -0.4797      1.00000
     22      -0.4056      1.00000
     23       0.0247      1.00000
     24       0.1089      1.00000
     25       0.1819      1.00000
     26       0.1973      1.00000
     27       0.2731      1.00000
     28       0.2739      1.00000
     29       0.3064      1.00000
     30       0.3066      1.00000
     31       0.3186      1.00000
     32       0.6025      1.00000
     33       0.6748      1.00000
     34       0.7938      1.00000
     35       0.7995      1.00000
     36       0.8297      1.00000
     37       0.8957      1.00000
     38       0.9644      1.00000
     39       0.9712      1.00000
     40       1.0154      1.00000
     41       1.0897      1.00000
     42       5.7083     -0.00000
     43       5.7133     -0.00000
     44       5.7355     -0.00000
     45       5.8872     -0.00000
     46       5.9038     -0.00000
     47       6.1652     -0.00000
     48       6.2986     -0.00000
     49       6.8949     -0.00000
     50       7.0486     -0.00000
     51       7.6359      0.00000
     52       7.6401      0.00000
     53       7.7595      0.00000
     54       8.1876      0.00000
     55       8.1998      0.00000
     56       8.7903      0.00000
     57       9.1712      0.00000
     58       9.4173      0.00000
     59      10.4358      0.00000
     60      11.0800      0.00000
 Fermi energy:         2.0269411212

 spin component 2

[...]

 k-point     3 :      -0.3333    0.3333    0.0000
  band No.  band energies     occupation
      1      -2.4029      1.00000
      2      -1.6185      1.00000
      3      -1.6075      1.00000
      4      -1.6063      1.00000
      5      -1.5441      1.00000
      6      -1.4936      1.00000
      7      -1.4868      1.00000
      8      -1.4512      1.00000
      9      -1.4447      1.00000
     10      -1.4373      1.00000
     11      -1.4256      1.00000
     12      -1.4040      1.00000
     13      -1.2680      1.00000
     14      -1.1930      1.00000
     15      -1.1326      1.00000
     16      -1.0753      1.00000
     17      -0.7732      1.00000
     18      -0.7307      1.00000
     19      -0.7300      1.00000
     20      -0.6604      1.00000
     21      -0.4797      1.00000
     22      -0.4056      1.00000
     23       0.0247      1.00000
     24       0.1089      1.00000
     25       0.1819      1.00000
     26       0.1973      1.00000
     27       0.2731      1.00000
     28       0.2739      1.00000
     29       0.3064      1.00000
     30       0.3066      1.00000
     31       0.3186      1.00000
     32       0.6025      1.00000
     33       0.6748      1.00000
     34       0.7938      1.00000
     35       0.7995      1.00000
     36       0.8297      1.00000
     37       0.8957      1.00000
     38       0.9644      1.00000
     39       0.9712      1.00000
     40       1.0154      1.00000
     41       1.0897      1.00000
     42       5.7083     -0.00000
     43       5.7133     -0.00000
     44       5.7355     -0.00000
     45       5.8872     -0.00000
     46       5.9038     -0.00000
     47       6.1652     -0.00000
     48       6.2986     -0.00000
     49       6.8949     -0.00000
     50       7.0486     -0.00000
     51       7.6359      0.00000
     52       7.6401      0.00000
     53       7.7595      0.00000
     54       8.1876      0.00000
     55       8.1998      0.00000
     56       8.7903      0.00000
     57       9.1712      0.00000
     58       9.4173      0.00000
     59      10.4358      0.00000
     60      11.0800      0.00000

[...]

 soft charge-density along one line, spin component           2
         0         1         2         3         4         5         6         7         8         9
 total charge-density along one line

------------------------ aborting loop because EDIFF is reached ----------------------------------------

         DFTD3 V3.0 Rev 1
 Edisp (eV)   -3.67951

 E6    (eV) :    -1.5331
 E8    (eV) :    -2.1464
 % E8        : 58.33

  FORCE on cell =-STRESS in cart. coord.  units (eV):
  Direction    XX          YY          ZZ          XY          YZ          ZX
  Alpha Z   285.34744   285.34744   285.34744
  Ewald   59370.92147 59370.92147-65254.92122    -0.00000     0.00000    -0.00000
  Hartree 62606.71772 62606.71772-60788.62505     0.00000    -0.00000    -0.00000
  E(xc)    -521.02704  -521.02689  -521.11888    -0.00013     0.00000     0.00000
  Local  ************************124975.03940     0.00403    -0.00000    -0.00000
  n-local  -177.99350  -171.09041  -179.74307     5.97859    -1.16493     2.02426
  augment   759.79711   759.80157   753.55779    -0.00386     0.00001     0.00001
  Kinetic   755.82622   729.45713   734.18097   -22.83579    -2.29931     3.98254
  Fock        0.00000     0.00000     0.00000     0.00000     0.00000     0.00000
  vdW        -4.34924    -4.34924    -3.76793     0.00000     0.00000     0.00000
  Total      -4.31370    -4.31370    -0.05054    -0.00000    -0.00000    -0.00000
  in kB     -40.82458   -40.82458    -0.47830    -0.00000    -0.00000    -0.00000

 VOLUME and BASIS-vectors are now :
  energy-cutoff  :      400.00
  volume of cell :      169.29
      direct lattice vectors                 reciprocal lattice vectors
     2.566797733  0.000000000  0.000000000     0.389590495 -0.224930177  0.000000000
     1.283398867  2.222912043  0.000000000     0.000000000  0.449860355  0.000000000
     0.000000000  0.000000000 29.670471191     0.000000000  0.000000000  0.033703543

  length of vectors
     2.566797733  2.566797733 29.670471191     0.449860355  0.449860355  0.033703543

 FORCES acting on ions
    electron-ion (+dipol)            ewald-force                    non-local-force                 convergence-correction
   -.304E-05 -.176E-05 0.609E+04   0.105E-07 -.334E-08 -.609E+04   0.694E-17 0.000E+00 -.356E+01   -.938E-07 -.541E-07 -.133E+00
   0.190E-05 0.232E-05 0.438E+04   -.266E-07 0.213E-09 -.438E+04   0.000E+00 0.000E+00 0.271E+00   -.211E-06 -.122E-06 -.198E+00
   -.998E-05 -.548E-05 0.267E+04   0.259E-07 0.103E-07 -.267E+04   0.000E+00 0.173E-17 0.130E+00   -.455E-06 -.263E-06 -.167E+00
   0.167E-05 0.966E-06 0.978E+03   0.337E-09 -.103E-07 -.977E+03   0.173E-17 0.173E-17 -.817E+00   0.285E-06 0.165E-06 -.104E+00
   0.258E-05 0.272E-05 -.732E+03   -.258E-07 0.133E-09 0.731E+03   0.260E-17 0.000E+00 0.783E+00   -.801E-07 -.463E-07 0.189E-01
   -.463E-05 -.239E-05 -.243E+04   0.257E-07 0.104E-07 0.243E+04   0.867E-18 -.173E-17 -.712E-01   -.108E-07 -.623E-08 0.864E-01
   0.357E-05 0.206E-05 -.413E+04   0.702E-09 -.107E-07 0.413E+04   -.139E-16 0.000E+00 0.617E-02   -.445E-07 -.257E-07 0.148E+00
   0.651E-05 0.500E-05 -.585E+04   -.107E-07 0.287E-08 0.584E+04   -.208E-16 -.139E-16 0.433E+01   0.159E-06 0.919E-07 0.128E+00
   0.477E-06 0.321E-06 -.501E+03   0.300E-10 0.409E-09 0.496E+03   0.108E-18 0.000E+00 0.482E+01   -.173E-10 -.102E-10 0.321E-02
   0.251E-06 0.191E-06 -.482E+03   0.604E-11 0.500E-10 0.487E+03   0.325E-18 0.217E-18 -.488E+01   -.639E-10 -.386E-10 0.354E-02
   -.676E-06 0.395E-05 -.795E+00   0.219E-12 -.563E-13 0.273E-11   -.221E-16 -.119E-16 0.102E+01   -.451E-06 -.260E-06 -.214E+00

 POSITION                                       TOTAL-FORCE (eV/Angst)
      0.00000     -0.00000      0.02751        -0.000000     -0.000000     -0.007005
      1.28340      0.74097      2.02129         0.000000     -0.000000     -0.009417
      2.56680      1.48194      4.03786        -0.000000     -0.000000     -0.014564
     -0.00000     -0.00000      6.06129         0.000000     -0.000000      0.010373
      1.28340      0.74097      8.07203        -0.000000      0.000000     -0.013012
      2.56680      1.48194     10.09826         0.000000      0.000000      0.004642
     -0.00000      0.00000     12.11245         0.000000     -0.000000      0.010086
      1.28340      0.74097     14.10242        -0.000000     -0.000000      0.002293
      1.28340      2.22291     16.29148         0.000000     -0.000000      0.001501
      1.28340      2.22291     17.04930        -0.000000      0.000000      0.015102
    total drift:                               -0.000001      0.000004      0.009212

  FREE ENERGIE OF THE ION-ELECTRON SYSTEM (eV)
  free  energy   TOTEN  =       -40.88134773 eV

  energy  without entropy=      -40.85462224  energy(sigma->0) =      -40.87243923

 d Force = 0.6890633E-04[ 0.366E-04, 0.101E-03]  d Energy = 0.7493178E-04-0.603E-05
 d Force = 0.1103671E+02[ 0.110E+02, 0.110E+02]  d Ewald  = 0.1103671E+02-0.456E-07

 stress matrix after NEB project (eV)
     -4.31370     -0.00000     -0.00000
     -0.00000     -4.31370     -0.00000
     -0.00000     -0.00000     -0.05054
  FORCES: max atom, RMS     0.015102    0.009928
  FORCE total and by dimension    0.031395    0.015102
  Stress total and by dimension    6.100696    4.313695
 Conjugate gradient step on ions:
 trial-energy change:   -0.000075  1 .order   -0.000069   -0.000101   -0.000037
  (g-gl).g = 0.189E-03      g.g   = 0.193E-03  gl.gl    = 0.339E-02
 g(Force)  = 0.193E-03   g(Stress)= 0.000E+00 ortho     =-0.379E-04
 gamma     =   0.05578
 trial     =   0.53022
 opt step  =   0.83021  (harmonic =   0.83021) maximal distance =0.00115972
 next E    =   -40.881352   (d E  =  -0.00008)

 reached required accuracy - stopping structural energy minimisation