 vasp.6.3.2 27Jun22 (build Aug 17 2022 15:43:34) complex

 executed on           tv2STDVTST date 2025.01.23  01:14:45

 INCAR:
   ISTART = 0
   ICHARG = 2
   IPIPOL = 3
   IVDW = 11
   IDIPOL = 3
   IVDW = 11
   ISPIN = 2
   ENCUT = 400
   PREC = Normal
   EDIFF = 2E-04
   GGA = PE
   ISMEAR = 1
   SIGMA = 0.2
   LREAL = .FALSE.
   ISYM = 1
   NSW = 800
   IBRION = 2
   POTIM = 0.5
   ISIF = 2
   EDIFFG = -.03
   NPAR = 4
   LWAVE = .FALSE.
   LCHARG = .FALSE.

 POTCAR:    PAW_PBE Cu 22Jun2005
|           W    W    AA    RRRRR   N    N  II  N    N   GGGG   !!!           |
|           W    W   A  A   R    R  NN   N  II  NN   N  G    G  !!!           |
|           W    W  A    A  R    R  N N  N  II  N N  N  G       !!!           |
|           W WW W  AAAAAA  RRRRR   N  N N  II  N  N N  G  GGG   !            |
|           WW  WW  A    A  R   R   N   NN  II  N   NN  G    G                |
|           W    W  A    A  R    R  N    N  II  N    N   GGGG   !!!           |
|     You use a magnetic or noncollinear calculation, but did not specify     |
|     the initial magnetic moment with the MAGMOM tag. Note that a            |
|     default of 1 will be used for all atoms. This ferromagnetic setup       |
|     may break the symmetry of the crystal, in particular it may rule        |
|     out finding an antiferromagnetic solution. Thence, we recommend         |
|     setting the initial magnetic moment manually or verifying carefully     |
|     that this magnetic setup is desired.                                    |

   TITEL  = PAW_PBE Cu 22Jun2005
   POMASS =   63.546; ZVAL   =   11.000    mass and valenz
   ENMAX  =  295.446; ENMIN  =  221.585 eV

  PAW_PBE Cu 22Jun2005                  :

 POSCAR: FCC Cu
  positions in cartesian coordinates
  velocities in cartesian coordinates
 exchange correlation table for  LEXCH =        8
   RHO(1)=    0.500       N(1)  =     2000
   RHO(2)=  100.500       N(2)  =     4000

 VTST: version 4.2, (08/11/21)

 CHAIN: initializing optimizer

 OPT: Using VASP Conjugate-Gradient optimizer
 CHAIN: Read ICHAIN            0

 POSCAR: FCC Cu
  positions in cartesian coordinates
  velocities in cartesian coordinates

 ion  position               nearest neighbor table
   1  0.000  0.000  0.000-  10 2.57  39 2.57  45 2.57  37 2.57  43 2.57   3 2.57   2 2.57
   2  0.000  0.333  0.000-  11 2.57  37 2.57  43 2.57  38 2.57  44 2.57   1 2.57   3 2.57
   3  0.000  0.667  0.000-  12 2.57  38 2.57  39 2.57  44 2.57  45 2.57   1 2.57   2 2.57
   4  0.333  0.000  0.000-  13 2.57  39 2.57  42 2.57  37 2.57  40 2.57   6 2.57   5 2.57
   5  0.333  0.333  0.000-  14 2.57  37 2.57  40 2.57  38 2.57  41 2.57   4 2.57   6 2.57
   6  0.333  0.667  0.000-  15 2.57  38 2.57  39 2.57  41 2.57  42 2.57   4 2.57   5 2.57
   7  0.667  0.000  0.000-  16 2.57  45 2.57  43 2.57  42 2.57  40 2.57   9 2.57   8 2.57
   8  0.667  0.333  0.000-  17 2.57  43 2.57  44 2.57  40 2.57  41 2.57   7 2.57   9 2.57
   9  0.667  0.667  0.000-  18 2.57  44 2.57  45 2.57  41 2.57  42 2.57   7 2.57   8 2.57
  10  0.000  0.000  0.107-   1 2.57  19 2.57  39 2.57  45 2.57  37 2.57  43 2.57  48 2.57  54 2.57
                            46 2.57  52 2.57  12 2.57  11 2.57
  11  0.000  0.333  0.107-   2 2.57  20 2.57  37 2.57  43 2.57  38 2.57  44 2.57  46 2.57  52 2.57
                            47 2.57  53 2.57  10 2.57  12 2.57
  12  0.000  0.667  0.107-   3 2.57  21 2.57  38 2.57  39 2.57  44 2.57  45 2.57  47 2.57  48 2.57
                            53 2.57  54 2.57  10 2.57  11 2.57
  13  0.333  0.000  0.107-   4 2.57  22 2.57  39 2.57  42 2.57  37 2.57  40 2.57  48 2.57  51 2.57
                            46 2.57  49 2.57  15 2.57  14 2.57
  14  0.333  0.333  0.107-   5 2.57  23 2.57  37 2.57  40 2.57  38 2.57  41 2.57  46 2.57  49 2.57
                            47 2.57  50 2.57  13 2.57  15 2.57
  15  0.333  0.667  0.107-   6 2.57  24 2.57  38 2.57  39 2.57  41 2.57  42 2.57  47 2.57  48 2.57
                            50 2.57  51 2.57  13 2.57  14 2.57
  16  0.667  0.000  0.107-   7 2.57  25 2.57  45 2.57  43 2.57  42 2.57  54 2.57  40 2.57  52 2.57
                            51 2.57  49 2.57  18 2.57  17 2.57
  17  0.667  0.333  0.107-   8 2.57  26 2.57  43 2.57  44 2.57  40 2.57  52 2.57  41 2.57  53 2.57
                            49 2.57  50 2.57  16 2.57  18 2.57
  18  0.667  0.667  0.107-   9 2.57  27 2.57  44 2.57  45 2.57  41 2.57  42 2.57  53 2.57  54 2.57
                            50 2.57  51 2.57  16 2.57  17 2.57
  19  0.000  0.000  0.214-  28 2.57  10 2.57  48 2.57  57 2.57  54 2.57  63 2.57  46 2.57  55 2.57
                            61 2.57  52 2.57  21 2.57  20 2.57
  20  0.000  0.333  0.214-  29 2.57  11 2.57  46 2.57  55 2.57  52 2.57  61 2.57  56 2.57  47 2.57
                            53 2.57  62 2.57  19 2.57  21 2.57
  21  0.000  0.667  0.214-  30 2.57  12 2.57  47 2.57  48 2.57  56 2.57  57 2.57  53 2.57  54 2.57
                            62 2.57  63 2.57  19 2.57  20 2.57
  22  0.333  0.000  0.214-  31 2.57  13 2.57  48 2.57  57 2.57  51 2.57  60 2.57  46 2.57  55 2.57
                            58 2.57  49 2.57  24 2.57  23 2.57
  23  0.333  0.333  0.214-  32 2.57  14 2.57  46 2.57  55 2.57  49 2.57  58 2.57  56 2.57  47 2.57
                            50 2.57  59 2.57  22 2.57  24 2.57
  24  0.333  0.667  0.214-  33 2.57  15 2.57  47 2.57  48 2.57  56 2.57  57 2.57  50 2.57  51 2.57
                            59 2.57  60 2.57  22 2.57  23 2.57
  25  0.667  0.000  0.214-  34 2.57  16 2.57  54 2.57  63 2.57  61 2.57  52 2.57  51 2.57  60 2.57
                            58 2.57  49 2.57  27 2.57  26 2.57
  26  0.667  0.333  0.214-  35 2.57  17 2.57  52 2.57  61 2.57  53 2.57  62 2.57  49 2.57  58 2.57
                            50 2.57  59 2.57  25 2.57  27 2.57
  27  0.667  0.667  0.214-  36 2.57  18 2.57  53 2.57  54 2.57  62 2.57  63 2.57  59 2.57  60 2.57
                            50 2.57  51 2.57  25 2.57  26 2.57
  28  0.000  0.000  0.321-  19 2.57  57 2.57  63 2.57  66 2.57  55 2.57  72 2.57  61 2.57  64 2.57
                            70 2.57  30 2.57  29 2.57
  29  0.000  0.333  0.321-  20 2.57  55 2.57  61 2.57  56 2.57  64 2.57  62 2.57  70 2.57  65 2.57
                            71 2.57  28 2.57  30 2.57
  30  0.000  0.667  0.321-  21 2.57  56 2.57  57 2.57  62 2.57  63 2.57  65 2.57  66 2.57  71 2.57
                            72 2.57  28 2.57  29 2.57
  31  0.333  0.000  0.321-  22 2.57  57 2.57  60 2.57  66 2.57  69 2.57  55 2.57  58 2.57  64 2.57
                            67 2.57  33 2.57  32 2.57
  32  0.333  0.333  0.321-  23 2.57  55 2.57  58 2.57  56 2.57  59 2.57  64 2.57  67 2.57  65 2.57
                            68 2.57  31 2.57  33 2.57
  33  0.333  0.667  0.321-  24 2.57  56 2.57  57 2.57  59 2.57  60 2.57  65 2.57  66 2.57  68 2.57
                            69 2.57  31 2.57  32 2.57
  34  0.667  0.000  0.321-  25 2.57  63 2.57  72 2.57  61 2.57  60 2.57  70 2.57  69 2.57  58 2.57
                            67 2.57  36 2.57  35 2.57
  35  0.667  0.333  0.321-  26 2.57  61 2.57  62 2.57  70 2.57  58 2.57  71 2.57  59 2.57  67 2.57
                            68 2.57  34 2.57  36 2.57
  36  0.667  0.667  0.321-  27 2.57  62 2.57  63 2.57  71 2.57  72 2.57  59 2.57  60 2.57  68 2.57
                            69 2.57  34 2.57  35 2.57
  37  0.167  0.167  0.054-  46 2.57  14 2.57  11 2.57  10 2.57  13 2.57   5 2.57   2 2.57   1 2.57
                             4 2.57  39 2.57  38 2.57
  38  0.167  0.500  0.054-  47 2.57  12 2.57  14 2.57  15 2.57  11 2.57   3 2.57   5 2.57   6 2.57
                             2 2.57  37 2.57  39 2.57
  39  0.167  0.833  0.054-  48 2.57  13 2.57  10 2.57  15 2.57  12 2.57   4 2.57   1 2.57   6 2.57
                             3 2.57  37 2.57  38 2.57
  40  0.500  0.167  0.054-  49 2.57  14 2.57  13 2.57  17 2.57   5 2.57  16 2.57   4 2.57   8 2.57
                             7 2.57  42 2.57  41 2.57
  41  0.500  0.500  0.054-  50 2.57  15 2.57  14 2.57  18 2.57  17 2.57   6 2.57   5 2.57   9 2.57
                             8 2.57  40 2.57  42 2.57
  42  0.500  0.833  0.054-  51 2.57  13 2.57  15 2.57  16 2.57   4 2.57  18 2.57   6 2.57   7 2.57
                             9 2.57  40 2.57  41 2.57
  43  0.833  0.167  0.054-  52 2.57  17 2.57  11 2.57  16 2.57  10 2.57   8 2.57   2 2.57   7 2.57
                             1 2.57  45 2.57  44 2.57
  44  0.833  0.500  0.054-  53 2.57  18 2.57  17 2.57  12 2.57  11 2.57   9 2.57   8 2.57   3 2.57
                             2 2.57  43 2.57  45 2.57
  45  0.833  0.833  0.054-  54 2.57  16 2.57  10 2.57  18 2.57  12 2.57   7 2.57   1 2.57   9 2.57
                             3 2.57  43 2.57  44 2.57
  46  0.167  0.167  0.161-  37 2.57  55 2.57  20 2.57  23 2.57  22 2.57  19 2.57  11 2.57  14 2.57
                            13 2.57  10 2.57  48 2.57  47 2.57
  47  0.167  0.500  0.161-  38 2.57  56 2.57  23 2.57  24 2.57  20 2.57  21 2.57  14 2.57  15 2.57
                            11 2.57  12 2.57  46 2.57  48 2.57
  48  0.167  0.833  0.161-  39 2.57  57 2.57  19 2.57  22 2.57  10 2.57  13 2.57  21 2.57  24 2.57
                            12 2.57  15 2.57  46 2.57  47 2.57
  49  0.500  0.167  0.161-  40 2.57  58 2.57  23 2.57  22 2.57  14 2.57  26 2.57  13 2.57  25 2.57
                            17 2.57  16 2.57  51 2.57  50 2.57
  50  0.500  0.500  0.161-  41 2.57  59 2.57  23 2.57  24 2.57  14 2.57  15 2.57  26 2.57  27 2.57
                            17 2.57  18 2.57  49 2.57  51 2.57
  51  0.500  0.833  0.161-  42 2.57  60 2.57  22 2.57  13 2.57  24 2.57  25 2.57  15 2.57  16 2.57
                            27 2.57  18 2.57  49 2.57  50 2.57
  52  0.833  0.167  0.161-  43 2.57  61 2.57  26 2.57  20 2.57  25 2.57  17 2.57  19 2.57  11 2.57
                            16 2.57  10 2.57  54 2.57  53 2.57
  53  0.833  0.500  0.161-  44 2.57  62 2.57  26 2.57  27 2.57  20 2.57  21 2.57  17 2.57  18 2.57
                            11 2.57  12 2.57  52 2.57  54 2.57
  54  0.833  0.833  0.161-  45 2.57  63 2.57  25 2.57  19 2.57  16 2.57  27 2.57  10 2.57  21 2.57
                            18 2.57  12 2.57  52 2.57  53 2.57
  55  0.167  0.167  0.268-  46 2.57  64 2.57  29 2.57  32 2.57  20 2.57  23 2.57  31 2.57  28 2.57
                            22 2.57  19 2.57  57 2.57  56 2.57
  56  0.167  0.500  0.268-  47 2.57  65 2.57  32 2.57  33 2.57  29 2.57  30 2.57  23 2.57  24 2.57
                            20 2.57  21 2.57  55 2.57  57 2.57
  57  0.167  0.833  0.268-  48 2.57  66 2.57  28 2.57  31 2.57  19 2.57  22 2.57  30 2.57  33 2.57
                            21 2.57  24 2.57  55 2.57  56 2.57
  58  0.500  0.167  0.268-  49 2.57  67 2.57  32 2.57  23 2.57  31 2.57  22 2.57  35 2.57  26 2.57
                            34 2.57  25 2.57  60 2.57  59 2.57
  59  0.500  0.500  0.268-  50 2.57  68 2.57  32 2.57  33 2.57  23 2.57  24 2.57  35 2.57  36 2.57
                            26 2.57  27 2.57  58 2.57  60 2.57
  60  0.500  0.833  0.268-  51 2.57  69 2.57  31 2.57  22 2.57  33 2.57  24 2.57  34 2.57  25 2.57
                            36 2.57  27 2.57  58 2.57  59 2.57
[...]
   -.319E-13 -.376E-04 0.453E+04   -.199E-06 0.445E-06 -.452E+04   0.140E-21 0.451E-21 -.536E+01   -.154E-09 0.107E-07 0.392E-01
   -.364E-13 0.372E-04 0.453E+04   -.199E-06 -.358E-06 -.452E+04   0.142E-21 0.000E+00 -.536E+01   -.152E-09 -.103E-07 0.392E-01
   0.174E-05 0.840E-13 0.453E+04   0.284E-06 0.153E-08 -.452E+04   0.000E+00 0.000E+00 -.536E+01   -.748E-09 0.539E-10 0.392E-01
   0.174E-05 -.376E-04 0.453E+04   0.284E-06 0.445E-06 -.452E+04   0.397E-22 -.661E-20 -.536E+01   -.747E-09 0.107E-07 0.392E-01
   0.174E-05 0.372E-04 0.453E+04   0.284E-06 -.358E-06 -.452E+04   -.132E-22 0.000E+00 -.536E+01   -.747E-09 -.103E-07 0.392E-01
   -.536E-06 0.890E-13 0.453E+04   -.310E-06 0.153E-08 -.452E+04   -.794E-22 0.000E+00 -.536E+01   -.388E-09 0.550E-10 0.392E-01
   -.536E-06 -.376E-04 0.453E+04   -.310E-06 0.445E-06 -.452E+04   -.794E-22 0.326E-20 -.536E+01   -.390E-09 0.107E-07 0.392E-01
   -.536E-06 0.372E-04 0.453E+04   -.310E-06 -.358E-06 -.452E+04   -.185E-21 0.000E+00 -.536E+01   -.392E-09 -.103E-07 0.392E-01
   -.437E-13 0.731E-13 0.203E+04   -.306E-06 -.159E-07 -.203E+04   -.199E-22 0.000E+00 -.108E+01   0.477E-09 0.444E-10 0.165E+00
   -.514E-13 -.455E-04 0.203E+04   -.306E-06 0.591E-06 -.203E+04   0.000E+00 -.387E-20 -.108E+01   0.480E-09 0.135E-08 0.165E+00
   -.510E-13 0.452E-04 0.203E+04   -.306E-06 -.421E-06 -.203E+04   0.000E+00 0.000E+00 -.108E+01   0.481E-09 -.169E-08 0.165E+00
   0.164E-05 0.660E-13 0.203E+04   0.380E-06 -.159E-07 -.203E+04   -.993E-23 0.000E+00 -.108E+01   0.557E-10 0.441E-10 0.165E+00
   0.164E-05 -.455E-04 0.203E+04   0.380E-06 0.591E-06 -.203E+04   -.248E-22 0.163E-20 -.108E+01   0.559E-10 0.135E-08 0.165E+00
   0.164E-05 0.452E-04 0.203E+04   0.380E-06 -.421E-06 -.203E+04   0.662E-23 0.000E+00 -.108E+01   0.555E-10 -.170E-08 0.165E+00
   -.505E-06 0.796E-13 0.203E+04   -.475E-06 -.159E-07 -.203E+04   -.662E-23 0.000E+00 -.108E+01   0.443E-09 0.473E-10 0.165E+00
   -.505E-06 -.455E-04 0.203E+04   -.475E-06 0.591E-06 -.203E+04   -.149E-22 0.744E-20 -.108E+01   0.440E-09 0.135E-08 0.165E+00
   -.505E-06 0.452E-04 0.203E+04   -.475E-06 -.421E-06 -.203E+04   0.132E-22 0.000E+00 -.108E+01   0.441E-09 -.169E-08 0.165E+00
   -.478E-13 0.803E-13 -.693E+03   -.325E-06 -.241E-07 0.693E+03   0.165E-22 0.000E+00 -.261E+00   0.359E-09 0.190E-09 0.172E+00
   -.514E-13 -.495E-04 -.693E+03   -.325E-06 0.609E-06 0.693E+03   -.103E-22 -.409E-20 -.261E+00   0.356E-09 -.118E-08 0.172E+00
   -.529E-13 0.491E-04 -.693E+03   -.325E-06 -.423E-06 0.693E+03   0.132E-22 0.000E+00 -.261E+00   0.357E-09 0.948E-09 0.172E+00
   0.163E-05 0.774E-13 -.693E+03   0.391E-06 -.241E-07 0.693E+03   -.199E-22 0.000E+00 -.261E+00   -.224E-09 0.189E-09 0.172E+00
   0.163E-05 -.495E-04 -.693E+03   0.391E-06 0.609E-06 0.693E+03   0.662E-23 -.119E-20 -.261E+00   -.224E-09 -.118E-08 0.172E+00
   0.163E-05 0.491E-04 -.693E+03   0.391E-06 -.423E-06 0.693E+03   0.827E-23 0.000E+00 -.261E+00   -.224E-09 0.951E-09 0.172E+00
   -.501E-06 0.722E-13 -.693E+03   -.485E-06 -.241E-07 0.693E+03   0.662E-23 0.000E+00 -.261E+00   0.936E-10 0.191E-09 0.172E+00
   -.501E-06 -.495E-04 -.693E+03   -.485E-06 0.609E-06 0.693E+03   0.827E-23 0.382E-20 -.261E+00   0.971E-10 -.118E-08 0.172E+00
   -.501E-06 0.491E-04 -.693E+03   -.485E-06 -.423E-06 0.693E+03   -.662E-23 0.000E+00 -.261E+00   0.960E-10 0.950E-09 0.172E+00
   -.423E-13 0.960E-13 -.347E+04   -.293E-06 -.150E-07 0.347E+04   -.331E-22 0.000E+00 -.789E+00   0.108E-09 -.506E-10 -.332E-01
   -.461E-13 -.362E-04 -.347E+04   -.293E-06 0.548E-06 0.347E+04   0.496E-23 -.286E-20 -.789E+00   0.106E-09 0.613E-10 -.332E-01
   -.467E-13 0.358E-04 -.347E+04   -.293E-06 -.365E-06 0.347E+04   0.579E-22 0.000E+00 -.789E+00   0.108E-09 -.262E-09 -.332E-01
   0.160E-05 0.904E-13 -.347E+04   0.318E-06 -.150E-07 0.347E+04   0.265E-22 0.000E+00 -.789E+00   0.472E-09 -.506E-10 -.332E-01
   0.160E-05 -.362E-04 -.347E+04   0.318E-06 0.548E-06 0.347E+04   -.397E-22 0.602E-20 -.789E+00   0.474E-09 0.620E-10 -.332E-01
   0.160E-05 0.358E-04 -.347E+04   0.318E-06 -.365E-06 0.347E+04   0.132E-22 0.000E+00 -.789E+00   0.473E-09 -.262E-09 -.332E-01
   -.492E-06 0.660E-13 -.347E+04   -.453E-06 -.150E-07 0.347E+04   0.132E-22 0.000E+00 -.789E+00   0.164E-09 -.512E-10 -.332E-01
   -.492E-06 -.362E-04 -.347E+04   -.453E-06 0.548E-06 0.347E+04   0.199E-22 -.280E-20 -.789E+00   0.164E-09 0.640E-10 -.332E-01
   -.492E-06 0.358E-04 -.347E+04   -.453E-06 -.365E-06 0.347E+04   -.397E-22 0.000E+00 -.789E+00   0.162E-09 -.263E-09 -.332E-01
   0.809E-06 0.358E-04 0.346E+04   0.181E-07 0.103E-06 -.346E+04   -.364E-22 0.000E+00 0.613E+00   -.115E-09 0.359E-08 0.420E+00
   0.809E-06 -.188E-06 0.346E+04   0.181E-07 0.305E-06 -.346E+04   -.364E-22 0.000E+00 0.613E+00   -.113E-09 0.170E-10 0.420E+00
   0.809E-06 -.400E-04 0.346E+04   0.181E-07 -.563E-06 -.346E+04   0.397E-22 0.124E-20 0.613E+00   -.114E-09 -.332E-08 0.420E+00
   0.243E-05 0.358E-04 0.346E+04   0.575E-06 0.103E-06 -.346E+04   0.265E-22 0.000E+00 0.613E+00   -.299E-09 0.360E-08 0.420E+00
   0.243E-05 -.188E-06 0.346E+04   0.575E-06 0.305E-06 -.346E+04   -.794E-22 0.000E+00 0.613E+00   -.300E-09 0.160E-10 0.420E+00
   0.243E-05 -.400E-04 0.346E+04   0.575E-06 -.563E-06 -.346E+04   -.106E-21 0.492E-20 0.613E+00   -.299E-09 -.332E-08 0.420E+00
   0.311E-06 0.358E-04 0.346E+04   -.192E-06 0.103E-06 -.346E+04   -.265E-22 0.000E+00 0.613E+00   0.202E-09 0.359E-08 0.420E+00
   0.311E-06 -.188E-06 0.346E+04   -.192E-06 0.305E-06 -.346E+04   -.397E-22 0.000E+00 0.613E+00   0.202E-09 0.106E-10 0.420E+00
   0.311E-06 -.400E-04 0.346E+04   -.192E-06 -.563E-06 -.346E+04   -.265E-22 0.212E-20 0.613E+00   0.202E-09 -.331E-08 0.420E+00
   0.812E-06 0.445E-04 0.718E+03   0.111E-07 0.119E-06 -.719E+03   -.529E-22 0.000E+00 0.335E+00   -.256E-10 0.157E-08 0.195E+00
   0.812E-06 -.188E-06 0.718E+03   0.111E-07 0.355E-06 -.719E+03   0.132E-22 0.000E+00 0.335E+00   -.257E-10 -.362E-09 0.195E+00
   0.812E-06 -.486E-04 0.718E+03   0.111E-07 -.638E-06 -.719E+03   -.397E-22 -.754E-20 0.335E+00   -.259E-10 -.111E-08 0.195E+00
   0.244E-05 0.445E-04 0.718E+03   0.660E-06 0.119E-06 -.719E+03   -.364E-22 0.000E+00 0.335E+00   -.791E-09 0.157E-08 0.195E+00
   0.244E-05 -.188E-06 0.718E+03   0.660E-06 0.355E-06 -.719E+03   0.711E-22 0.000E+00 0.335E+00   -.791E-09 -.363E-09 0.195E+00
   0.244E-05 -.486E-04 0.718E+03   0.660E-06 -.638E-06 -.719E+03   0.720E-22 0.120E-19 0.335E+00   -.791E-09 -.111E-08 0.195E+00
   0.312E-06 0.445E-04 0.718E+03   -.246E-06 0.119E-06 -.719E+03   0.132E-22 0.000E+00 0.335E+00   0.484E-09 0.157E-08 0.195E+00
   0.312E-06 -.188E-06 0.718E+03   -.246E-06 0.355E-06 -.719E+03   0.405E-22 0.000E+00 0.335E+00   0.485E-09 -.362E-09 0.195E+00
   0.312E-06 -.486E-04 0.718E+03   -.246E-06 -.638E-06 -.719E+03   0.397E-22 -.115E-19 0.335E+00   0.485E-09 -.111E-08 0.195E+00
   0.821E-06 0.408E-04 -.201E+04   0.822E-10 0.110E-06 0.201E+04   0.463E-22 0.000E+00 0.724E+00   0.875E-10 0.222E-09 0.142E+00
   0.821E-06 -.189E-06 -.201E+04   0.822E-10 0.360E-06 0.201E+04   -.106E-21 0.000E+00 0.724E+00   0.878E-10 -.256E-09 0.142E+00
   0.821E-06 -.450E-04 -.201E+04   0.822E-10 -.628E-06 0.201E+04   0.132E-22 -.107E-19 0.724E+00   0.886E-10 0.426E-10 0.142E+00
   0.246E-05 0.408E-04 -.201E+04   0.645E-06 0.110E-06 0.201E+04   0.000E+00 0.000E+00 0.724E+00   -.430E-09 0.221E-09 0.142E+00
   0.246E-05 -.189E-06 -.201E+04   0.645E-06 0.360E-06 0.201E+04   -.265E-22 0.000E+00 0.724E+00   -.429E-09 -.252E-09 0.142E+00
   0.246E-05 -.450E-04 -.201E+04   0.645E-06 -.628E-06 0.201E+04   0.132E-21 0.854E-20 0.724E+00   -.431E-09 0.398E-10 0.142E+00
   0.316E-06 0.408E-04 -.201E+04   -.238E-06 0.110E-06 0.201E+04   -.132E-22 0.000E+00 0.724E+00   0.197E-09 0.225E-09 0.142E+00
   0.316E-06 -.189E-06 -.201E+04   -.238E-06 0.360E-06 0.201E+04   -.265E-22 0.000E+00 0.724E+00   0.196E-09 -.254E-09 0.142E+00
   0.316E-06 -.450E-04 -.201E+04   -.238E-06 -.628E-06 0.201E+04   -.265E-22 0.126E-19 0.724E+00   0.197E-09 0.403E-10 0.142E+00
   0.869E-06 0.501E-04 -.456E+04   -.143E-07 0.736E-07 0.455E+04   0.926E-22 0.000E+00 0.553E+01   -.842E-11 -.375E-08 -.205E+00
   0.869E-06 -.192E-06 -.456E+04   -.143E-07 0.316E-06 0.455E+04   0.794E-22 0.000E+00 0.553E+01   -.738E-11 0.634E-10 -.205E+00
   0.869E-06 -.543E-04 -.456E+04   -.143E-07 -.485E-06 0.455E+04   -.265E-22 0.538E-20 0.553E+01   -.898E-11 0.381E-08 -.205E+00
   0.261E-05 0.501E-04 -.456E+04   0.442E-06 0.736E-07 0.455E+04   0.695E-22 0.000E+00 0.553E+01   0.702E-10 -.375E-08 -.205E+00
   0.261E-05 -.192E-06 -.456E+04   0.442E-06 0.316E-06 0.455E+04   0.146E-21 0.000E+00 0.553E+01   0.702E-10 0.561E-10 -.205E+00
   0.261E-05 -.543E-04 -.456E+04   0.442E-06 -.485E-06 0.455E+04   -.132E-22 0.770E-20 0.553E+01   0.703E-10 0.381E-08 -.205E+00
   0.334E-06 0.501E-04 -.456E+04   -.189E-06 0.736E-07 0.455E+04   0.000E+00 0.000E+00 0.553E+01   -.238E-09 -.375E-08 -.205E+00
   0.334E-06 -.192E-06 -.456E+04   -.189E-06 0.316E-06 0.455E+04   -.165E-21 0.000E+00 0.553E+01   -.239E-09 0.545E-10 -.205E+00
   0.334E-06 -.543E-04 -.456E+04   -.189E-06 -.485E-06 0.455E+04   -.106E-21 -.127E-19 0.553E+01   -.238E-09 0.382E-08 -.205E+00
   0.573E-04 -.569E-04 -.525E+01   0.380E-13 -.471E-13 0.191E-10   -.376E-22 0.132E-19 -.255E+01   -.620E-09 0.101E-08 0.806E+01

 POSITION                                       TOTAL-FORCE (eV/Angst)
      0.00000      0.00000      0.00000        -0.000000     -0.000000      0.350816
      0.00000      2.56680      0.00000         0.000000      0.000000      0.350816
      0.00000      5.13360      0.00000         0.000000     -0.000000      0.350816
      3.63000      0.00000      0.00000        -0.000000     -0.000000      0.350816
      3.63000      2.56680      0.00000         0.000000     -0.000000      0.350816
      3.63000      5.13360      0.00000        -0.000000     -0.000000      0.350816
      7.26000      0.00000      0.00000        -0.000000     -0.000000      0.350816
      7.26000      2.56680      0.00000        -0.000000      0.000000      0.350816
      7.26000      5.13360      0.00000         0.000000     -0.000000      0.350816
      0.00000      0.00000      2.56680        -0.000000     -0.000000     -0.380883
      0.00000      2.56680      2.56680         0.000000      0.000000     -0.380883
      0.00000      5.13360      2.56680        -0.000000     -0.000000     -0.380883
      3.63000      0.00000      2.56680         0.000000     -0.000000     -0.380883
      3.63000      2.56680      2.56680         0.000000     -0.000000     -0.380883
      3.63000      5.13360      2.56680         0.000000     -0.000000     -0.380883
      7.26000      0.00000      2.56680         0.000000     -0.000000     -0.380883
      7.26000      2.56680      2.56680         0.000000     -0.000000     -0.380883
      7.26000      5.13360      2.56680         0.000000     -0.000000     -0.380883
     -0.00000     -0.00000      5.05272         0.000000     -0.000000      0.004934
     -0.00000      2.56680      5.05272         0.000000     -0.000000      0.004934
      0.00000      5.13360      5.05272         0.000000     -0.000000      0.004934
      3.63000     -0.00000      5.05272         0.000000     -0.000000      0.004934
      3.63000      2.56680      5.05272         0.000000     -0.000000      0.004934
      3.63000      5.13360      5.05272         0.000000     -0.000000      0.004934
      7.26000     -0.00000      5.05272        -0.000000     -0.000000      0.004934
      7.26000      2.56680      5.05272        -0.000000      0.000000      0.004934
      7.26000      5.13360      5.05272        -0.000000     -0.000000      0.004934
      0.00000     -0.00000      7.59584         0.000000     -0.000000      0.000349
      0.00000      2.56680      7.59584         0.000000      0.000000      0.000349
      0.00000      5.13360      7.59584         0.000000     -0.000000      0.000349
      3.63000     -0.00000      7.59584         0.000000     -0.000000      0.000349
      3.63000      2.56680      7.59584         0.000000      0.000000      0.000349
      3.63000      5.13360      7.59584         0.000000     -0.000000      0.000349
      7.26000     -0.00000      7.59584         0.000000     -0.000000      0.000349
      7.26000      2.56680      7.59584         0.000000      0.000000      0.000349
      7.26000      5.13360      7.59584         0.000000     -0.000000      0.000349
      1.81500      1.28340      1.19571        -0.000000     -0.000000      0.009808
      1.81500      3.85020      1.19571         0.000000     -0.000000      0.009808
      1.81500      6.41699      1.19571         0.000000     -0.000000      0.009808
      5.44500      1.28340      1.19571         0.000000      0.000000      0.009808
      5.44500      3.85020      1.19571        -0.000000      0.000000      0.009808
      5.44500      6.41699      1.19571         0.000000     -0.000000      0.009808
      9.07500      1.28340      1.19571         0.000000     -0.000000      0.009808
      9.07500      3.85020      1.19571        -0.000000     -0.000000      0.009808
      9.07500      6.41699      1.19571        -0.000000      0.000000      0.009808
      1.81500      1.28340      3.76737         0.000000     -0.000000      0.018738
      1.81500      3.85020      3.76737        -0.000000     -0.000000      0.018738
      1.81500      6.41699      3.76737        -0.000000      0.000000      0.018738
      5.44500      1.28340      3.76737        -0.000000     -0.000000      0.018738
      5.44500      3.85020      3.76737         0.000000     -0.000000      0.018738
      5.44500      6.41699      3.76737        -0.000000      0.000000      0.018738
      9.07500      1.28340      3.76737         0.000000     -0.000000      0.018738
      9.07500      3.85020      3.76737         0.000000     -0.000000      0.018738
      9.07500      6.41699      3.76737        -0.000000      0.000000      0.018738
      1.81500      1.28340      6.27545        -0.000000      0.000000     -0.005218
      1.81500      3.85020      6.27545        -0.000000     -0.000000     -0.005218
      1.81500      6.41699      6.27545        -0.000000      0.000000     -0.005218
      5.44500      1.28340      6.27545        -0.000000     -0.000000     -0.005218
      5.44500      3.85020      6.27545        -0.000000     -0.000000     -0.005218
      5.44500      6.41699      6.27545        -0.000000      0.000000     -0.005218
      9.07500      1.28340      6.27545        -0.000000     -0.000000     -0.005218
      9.07500      3.85020      6.27545         0.000000     -0.000000     -0.005218
      9.07500      6.41699      6.27545         0.000000      0.000000     -0.005218
      1.81500      1.28340      8.73887        -0.000000     -0.000000      0.001455
      1.81500      3.85020      8.73887        -0.000000     -0.000000      0.001455
      1.81500      6.41699      8.73887        -0.000000     -0.000000      0.001455
      5.44500      1.28340      8.73887        -0.000000     -0.000000      0.001455
      5.44500      3.85020      8.73887        -0.000000      0.000000      0.001455
      5.44500      6.41699      8.73887         0.000000      0.000000      0.001455
      9.07500      1.28340      8.73887         0.000000     -0.000000      0.001455
      9.07500      3.85020      8.73887         0.000000      0.000000      0.001455
      9.07500      6.41699      8.73887        -0.000000      0.000000      0.001455
    total drift:                                0.000057     -0.000057      0.253001

  FREE ENERGIE OF THE ION-ELECTRON SYSTEM (eV)
  free  energy   TOTEN  =      -279.49719691 eV

  energy  without entropy=     -279.43812642  energy(sigma->0) =     -279.47750675

 d Force = 0.2057371E-02[ 0.486E-03, 0.363E-02]  d Energy = 0.3000387E-02-0.943E-03
 d Force =-0.3125796E+03[-0.313E+03,-0.313E+03]  d Ewald  =-0.3125796E+03 0.374E-05

 stress matrix after NEB project (eV)
    -42.04037      0.00000      0.00000
      0.00000    -46.40291      0.00000
      0.00000      0.00000    -12.67739
  FORCES: max atom, RMS     0.018738    0.007915
  FORCE total and by dimension    0.067157    0.018738
  Stress total and by dimension   63.885359   46.402912
 Conjugate gradient step on ions:
 trial-energy change:   -0.003000  1 .order   -0.002057   -0.003629   -0.000486
  (g-gl).g = 0.143E-02      g.g   = 0.166E-02  gl.gl    = 0.104E-01
 g(Force)  = 0.166E-02   g(Stress)= 0.000E+00 ortho     =-0.118E-03
 gamma     =   0.13814
 trial     =   2.21443
 opt step  =   2.33260  (harmonic =   2.55667) maximal distance =0.00615212
 next E    =  -279.497210   (d E  =  -0.00301)

 reached required accuracy - stopping structural energy minimisation