 vasp.6.3.2 27Jun22 (build Aug 17 2022 15:43:34) complex

 executed on           tv2STDVTST date 2025.01.23  12:35:49

 INCAR:
   ISTART = 0
   ICHARG = 2
   IPIPOL = 3
   IVDW = 11
   IDIPOL = 3
   IVDW = 11
   ISPIN = 2
   ENCUT = 400
   PREC = Normal
   EDIFF = 2E-04
   GGA = PE
   ISMEAR = 1
   SIGMA = 0.2
   LREAL = .FALSE.
   ISYM = 1
   NSW = 800
   IBRION = 2
   POTIM = 0.5
   ISIF = 2
   EDIFFG = -.03
   NPAR = 4
   LWAVE = .FALSE.
   LCHARG = .FALSE.

 POTCAR:    PAW_PBE Cu 22Jun2005
|           W    W    AA    RRRRR   N    N  II  N    N   GGGG   !!!           |
|           W    W   A  A   R    R  NN   N  II  NN   N  G    G  !!!           |
|           W    W  A    A  R    R  N N  N  II  N N  N  G       !!!           |
|           W WW W  AAAAAA  RRRRR   N  N N  II  N  N N  G  GGG   !            |
|           WW  WW  A    A  R   R   N   NN  II  N   NN  G    G                |
|           W    W  A    A  R    R  N    N  II  N    N   GGGG   !!!           |
|     You use a magnetic or noncollinear calculation, but did not specify     |
|     the initial magnetic moment with the MAGMOM tag. Note that a            |
|     default of 1 will be used for all atoms. This ferromagnetic setup       |
|     may break the symmetry of the crystal, in particular it may rule        |
|     out finding an antiferromagnetic solution. Thence, we recommend         |
|     setting the initial magnetic moment manually or verifying carefully     |
|     that this magnetic setup is desired.                                    |

   TITEL  = PAW_PBE Cu 22Jun2005
   POMASS =   63.546; ZVAL   =   11.000    mass and valenz
   ENMAX  =  295.446; ENMIN  =  221.585 eV

  PAW_PBE Cu 22Jun2005                  :

 POSCAR: FCC Cu
  positions in cartesian coordinates
  velocities in cartesian coordinates
 exchange correlation table for  LEXCH =        8
   RHO(1)=    0.500       N(1)  =     2000
   RHO(2)=  100.500       N(2)  =     4000

 VTST: version 4.2, (08/11/21)

 CHAIN: initializing optimizer

 OPT: Using VASP Conjugate-Gradient optimizer
 CHAIN: Read ICHAIN            0

 POSCAR: FCC Cu
  positions in cartesian coordinates
  velocities in cartesian coordinates

 ion  position               nearest neighbor table
   1  0.000  0.000  0.000-  19 2.57  12 2.57  18 2.57  10 2.57  16 2.57   3 2.57   2 2.57
   2  0.000  0.333  0.000-  20 2.57  10 2.57  16 2.57  11 2.57  17 2.57   1 2.57   3 2.57
   3  0.000  0.667  0.000-  21 2.57  12 2.57  11 2.57  18 2.57  17 2.57   1 2.57   2 2.57
   4  0.333  0.000  0.000-  22 2.57  12 2.57  15 2.57  10 2.57  13 2.57   6 2.57   5 2.57
   5  0.333  0.333  0.000-  23 2.57  10 2.57  13 2.57  11 2.57  14 2.57   4 2.57   6 2.57
   6  0.333  0.667  0.000-  24 2.57  12 2.57  11 2.57  15 2.57  14 2.57   4 2.57   5 2.57
   7  0.667  0.000  0.000-  25 2.57  18 2.57  16 2.57  15 2.57  13 2.57   9 2.57   8 2.57
   8  0.667  0.333  0.000-  26 2.57  16 2.57  17 2.57  13 2.57  14 2.57   7 2.57   9 2.57
   9  0.667  0.667  0.000-  27 2.57  18 2.57  17 2.57  15 2.57  14 2.57   7 2.57   8 2.57
  10  0.167  0.167  0.054-  28 2.57  23 2.57  20 2.57  19 2.57  22 2.57   5 2.57   2 2.57   1 2.57
                             4 2.57  12 2.57  11 2.57
  11  0.167  0.500  0.054-  29 2.57  21 2.57  23 2.57  24 2.57  20 2.57   3 2.57   5 2.57   6 2.57
                             2 2.57  10 2.57  12 2.57
  12  0.167  0.833  0.054-  30 2.57  22 2.57  19 2.57  24 2.57  21 2.57   4 2.57   1 2.57   6 2.57
                             3 2.57  10 2.57  11 2.57
  13  0.500  0.167  0.054-  31 2.57  23 2.57  22 2.57  26 2.57   5 2.57  25 2.57   4 2.57   8 2.57
                             7 2.57  15 2.57  14 2.57
  14  0.500  0.500  0.054-  32 2.57  24 2.57  23 2.57  27 2.57  26 2.57   6 2.57   5 2.57   9 2.57
                             8 2.57  13 2.57  15 2.57
  15  0.500  0.833  0.054-  33 2.57  22 2.57  24 2.57  25 2.57   4 2.57  27 2.57   6 2.57   7 2.57
                             9 2.57  13 2.57  14 2.57
  16  0.833  0.167  0.054-  34 2.57  26 2.57  20 2.57  25 2.57  19 2.57   8 2.57   2 2.57   7 2.57
                             1 2.57  18 2.57  17 2.57
  17  0.833  0.500  0.054-  35 2.57  27 2.57  26 2.57  21 2.57  20 2.57   9 2.57   8 2.57   3 2.57
                             2 2.57  16 2.57  18 2.57
  18  0.833  0.833  0.054-  36 2.57  25 2.57  19 2.57  27 2.57  21 2.57   7 2.57   1 2.57   9 2.57
                             3 2.57  16 2.57  17 2.57
  19  0.000  0.000  0.107-   1 2.57  37 2.57  12 2.57  18 2.57  10 2.57  16 2.57  30 2.57  36 2.57
                            28 2.57  34 2.57  21 2.57  20 2.57
  20  0.000  0.333  0.107-   2 2.57  38 2.57  10 2.57  16 2.57  11 2.57  17 2.57  28 2.57  34 2.57
                            29 2.57  35 2.57  19 2.57  21 2.57
  21  0.000  0.667  0.107-   3 2.57  39 2.57  12 2.57  11 2.57  18 2.57  17 2.57  30 2.57  29 2.57
                            36 2.57  35 2.57  19 2.57  20 2.57
  22  0.333  0.000  0.107-   4 2.57  40 2.57  12 2.57  15 2.57  10 2.57  13 2.57  30 2.57  33 2.57
                            28 2.57  31 2.57  24 2.57  23 2.57
  23  0.333  0.333  0.107-   5 2.57  41 2.57  10 2.57  13 2.57  11 2.57  14 2.57  28 2.57  31 2.57
                            29 2.57  32 2.57  22 2.57  24 2.57
  24  0.333  0.667  0.107-   6 2.57  42 2.57  12 2.57  11 2.57  15 2.57  14 2.57  30 2.57  29 2.57
                            33 2.57  32 2.57  22 2.57  23 2.57
  25  0.667  0.000  0.107-   7 2.57  43 2.57  18 2.57  16 2.57  15 2.57  36 2.57  13 2.57  34 2.57
                            33 2.57  31 2.57  27 2.57  26 2.57
  26  0.667  0.333  0.107-   8 2.57  44 2.57  16 2.57  17 2.57  13 2.57  34 2.57  14 2.57  35 2.57
                            31 2.57  32 2.57  25 2.57  27 2.57
  27  0.667  0.667  0.107-   9 2.57  45 2.57  18 2.57  17 2.57  15 2.57  14 2.57  36 2.57  35 2.57
                            33 2.57  32 2.57  25 2.57  26 2.57
  28  0.167  0.167  0.161-  10 2.57  46 2.57  41 2.57  38 2.57  37 2.57  40 2.57  23 2.57  20 2.57
                            19 2.57  22 2.57  30 2.57  29 2.57
  29  0.167  0.500  0.161-  11 2.57  47 2.57  39 2.57  41 2.57  42 2.57  38 2.57  21 2.57  23 2.57
                            24 2.57  20 2.57  28 2.57  30 2.57
  30  0.167  0.833  0.161-  12 2.57  48 2.57  40 2.57  37 2.57  22 2.57  19 2.57  42 2.57  39 2.57
                            24 2.57  21 2.57  28 2.57  29 2.57
  31  0.500  0.167  0.161-  13 2.57  49 2.57  41 2.57  40 2.57  23 2.57  44 2.57  22 2.57  43 2.57
                            26 2.57  25 2.57  33 2.57  32 2.57
  32  0.500  0.500  0.161-  14 2.57  50 2.57  42 2.57  41 2.57  24 2.57  23 2.57  45 2.57  44 2.57
                            27 2.57  26 2.57  31 2.57  33 2.57
  33  0.500  0.833  0.161-  15 2.57  51 2.57  40 2.57  22 2.57  42 2.57  43 2.57  24 2.57  25 2.57
                            45 2.57  27 2.57  31 2.57  32 2.57
  34  0.833  0.167  0.161-  16 2.57  52 2.57  44 2.57  38 2.57  43 2.57  26 2.57  37 2.57  20 2.57
                            25 2.57  19 2.57  36 2.57  35 2.57
  35  0.833  0.500  0.161-  17 2.57  53 2.57  45 2.57  44 2.57  39 2.57  38 2.57  27 2.57  26 2.57
                            21 2.57  20 2.57  34 2.57  36 2.57
  36  0.833  0.833  0.161-  18 2.57  54 2.57  43 2.57  37 2.57  25 2.57  45 2.57  19 2.57  39 2.57
                            27 2.57  21 2.57  34 2.57  35 2.57
  37  0.000  0.000  0.214-  55 2.57  19 2.57  48 2.57  30 2.57  54 2.57  36 2.57  46 2.57  28 2.57
                            34 2.57  52 2.57  39 2.57  38 2.57
  38  0.000  0.333  0.214-  56 2.57  20 2.57  46 2.57  28 2.57  52 2.57  34 2.57  29 2.57  47 2.57
                            53 2.57  35 2.57  37 2.57  39 2.57
  39  0.000  0.667  0.214-  57 2.57  21 2.57  30 2.57  47 2.57  48 2.57  29 2.57  36 2.57  53 2.57
                            54 2.57  35 2.57  37 2.57  38 2.57
  40  0.333  0.000  0.214-  58 2.57  22 2.57  48 2.57  30 2.57  51 2.57  33 2.57  46 2.57  28 2.57
                            31 2.57  49 2.57  42 2.57  41 2.57
  41  0.333  0.333  0.214-  59 2.57  23 2.57  46 2.57  28 2.57  49 2.57  31 2.57  29 2.57  47 2.57
                            50 2.57  32 2.57  40 2.57  42 2.57
  42  0.333  0.667  0.214-  60 2.57  24 2.57  30 2.57  47 2.57  48 2.57  29 2.57  33 2.57  50 2.57
                            51 2.57  32 2.57  40 2.57  41 2.57
  43  0.667  0.000  0.214-  61 2.57  25 2.57  54 2.57  36 2.57  34 2.57  52 2.57  51 2.57  33 2.57
                            31 2.57  49 2.57  45 2.57  44 2.57
  44  0.667  0.333  0.214-  62 2.57  26 2.57  52 2.57  34 2.57  53 2.57  35 2.57  49 2.57  31 2.57
                            50 2.57  32 2.57  43 2.57  45 2.57
  45  0.667  0.667  0.214-  63 2.57  27 2.57  36 2.57  53 2.57  54 2.57  35 2.57  51 2.57  32 2.57
                            33 2.57  50 2.57  43 2.57  44 2.57
  46  0.167  0.167  0.268-  28 2.57  64 2.57  59 2.57  56 2.57  41 2.57  38 2.57  55 2.57  58 2.57
                            37 2.57  40 2.57  48 2.57  47 2.57
  47  0.167  0.500  0.268-  29 2.57  65 2.57  57 2.57  59 2.57  60 2.57  56 2.57  39 2.57  41 2.57
                            42 2.57  38 2.57  46 2.57  48 2.57
  48  0.167  0.833  0.268-  30 2.57  66 2.57  58 2.57  55 2.57  40 2.57  37 2.57  60 2.57  57 2.57
                            42 2.57  39 2.57  46 2.57  47 2.57
  49  0.500  0.167  0.268-  31 2.57  67 2.57  59 2.57  41 2.57  58 2.57  40 2.57  62 2.57  44 2.57
                            61 2.57  43 2.57  51 2.57  50 2.57
  50  0.500  0.500  0.268-  32 2.57  68 2.57  60 2.57  59 2.57  42 2.57  41 2.57  63 2.57  62 2.57
                            45 2.57  44 2.57  49 2.57  51 2.57
  51  0.500  0.833  0.268-  33 2.57  69 2.57  58 2.57  40 2.57  60 2.57  42 2.57  61 2.57  43 2.57
                            63 2.57  45 2.57  49 2.57  50 2.57
  52  0.833  0.167  0.268-  34 2.57  70 2.57  62 2.57  44 2.57  56 2.57  38 2.57  61 2.57  43 2.57
                            55 2.57  37 2.57  54 2.57  53 2.57
  53  0.833  0.500  0.268-  35 2.57  71 2.57  63 2.57  62 2.57  45 2.57  44 2.57  57 2.57  56 2.57
                            39 2.57  38 2.57  52 2.57  54 2.57
  54  0.833  0.833  0.268-  36 2.57  72 2.57  61 2.57  43 2.57  55 2.57  37 2.57  63 2.57  45 2.57
                            57 2.57  39 2.57  52 2.57  53 2.57
  55  0.000  0.000  0.321-  37 2.57  48 2.57  54 2.57  66 2.57  46 2.57  72 2.57  52 2.57  64 2.57
                            70 2.57  57 2.57  56 2.57
  56  0.000  0.333  0.321-  38 2.57  46 2.57  52 2.57  47 2.57  64 2.57  53 2.57  70 2.57  65 2.57
                            71 2.57  55 2.57  57 2.57
  57  0.000  0.667  0.321-  39 2.57  47 2.57  48 2.57  53 2.57  54 2.57  65 2.57  66 2.57  71 2.57
                            72 2.57  55 2.57  56 2.57
  58  0.333  0.000  0.321-  40 2.57  48 2.57  51 2.57  66 2.57  69 2.57  46 2.57  49 2.57  64 2.57
                            67 2.57  60 2.57  59 2.57
  59  0.333  0.333  0.321-  41 2.57  46 2.57  49 2.57  47 2.57  50 2.57  64 2.57  67 2.57  65 2.57
                            68 2.57  58 2.57  60 2.57
  60  0.333  0.667  0.321-  42 2.57  47 2.57  48 2.57  50 2.57  51 2.57  65 2.57  66 2.57  68 2.57
                            69 2.57  58 2.57  59 2.57
[...]
   -.425E-13 -.377E-04 0.455E+04   -.193E-06 0.438E-06 -.455E+04   -.132E-21 0.511E-20 -.545E+01   0.208E-09 -.209E-08 0.138E-01
   -.400E-13 0.373E-04 0.455E+04   -.193E-06 -.359E-06 -.455E+04   -.159E-21 0.000E+00 -.545E+01   0.209E-09 0.206E-08 0.138E-01
   0.176E-05 0.618E-13 0.455E+04   0.285E-06 -.175E-08 -.455E+04   -.794E-22 0.000E+00 -.545E+01   -.430E-09 0.385E-10 0.138E-01
   0.176E-05 -.377E-04 0.455E+04   0.285E-06 0.438E-06 -.455E+04   0.298E-22 0.661E-20 -.545E+01   -.432E-09 -.209E-08 0.138E-01
   0.176E-05 0.373E-04 0.455E+04   0.285E-06 -.359E-06 -.455E+04   0.106E-21 0.000E+00 -.545E+01   -.432E-09 0.206E-08 0.138E-01
   -.541E-06 0.106E-12 0.455E+04   -.294E-06 -.175E-08 -.455E+04   0.132E-21 0.000E+00 -.545E+01   0.190E-09 0.333E-10 0.138E-01
   -.541E-06 -.377E-04 0.455E+04   -.294E-06 0.438E-06 -.455E+04   0.132E-21 0.136E-20 -.545E+01   0.185E-09 -.209E-08 0.138E-01
   -.541E-06 0.373E-04 0.455E+04   -.294E-06 -.359E-06 -.455E+04   0.529E-22 0.000E+00 -.545E+01   0.185E-09 0.206E-08 0.138E-01
   0.808E-06 0.392E-04 0.344E+04   0.181E-07 0.104E-06 -.344E+04   -.215E-22 0.000E+00 0.321E-02   0.110E-09 -.144E-08 -.409E-01
   0.808E-06 -.188E-06 0.344E+04   0.181E-07 0.308E-06 -.344E+04   -.199E-22 0.000E+00 0.321E-02   0.110E-09 -.156E-09 -.409E-01
   0.808E-06 -.433E-04 0.344E+04   0.181E-07 -.570E-06 -.344E+04   0.199E-22 0.657E-20 0.321E-02   0.110E-09 0.151E-08 -.409E-01
   0.242E-05 0.392E-04 0.344E+04   0.584E-06 0.104E-06 -.344E+04   0.662E-23 0.000E+00 0.321E-02   -.197E-09 -.144E-08 -.409E-01
   0.242E-05 -.188E-06 0.344E+04   0.584E-06 0.308E-06 -.344E+04   -.265E-22 0.000E+00 0.321E-02   -.199E-09 -.160E-09 -.409E-01
   0.242E-05 -.433E-04 0.344E+04   0.584E-06 -.570E-06 -.344E+04   0.463E-22 -.700E-20 0.321E-02   -.196E-09 0.151E-08 -.409E-01
   0.311E-06 0.392E-04 0.344E+04   -.194E-06 0.104E-06 -.344E+04   0.199E-22 0.000E+00 0.321E-02   0.248E-09 -.145E-08 -.409E-01
   0.311E-06 -.188E-06 0.344E+04   -.194E-06 0.308E-06 -.344E+04   0.397E-22 0.000E+00 0.321E-02   0.249E-09 -.162E-09 -.409E-01
   0.311E-06 -.433E-04 0.344E+04   -.194E-06 -.570E-06 -.344E+04   0.662E-23 -.786E-20 0.321E-02   0.247E-09 0.151E-08 -.409E-01
   -.631E-13 0.820E-13 0.205E+04   -.309E-06 -.134E-07 -.205E+04   0.157E-22 0.000E+00 -.486E+00   0.247E-09 0.202E-10 -.259E+00
   -.573E-13 -.476E-04 0.205E+04   -.309E-06 0.595E-06 -.205E+04   0.298E-22 -.982E-20 -.486E+00   0.249E-09 0.365E-08 -.259E+00
   -.618E-13 0.472E-04 0.205E+04   -.309E-06 -.420E-06 -.205E+04   0.000E+00 0.000E+00 -.486E+00   0.250E-09 -.383E-08 -.259E+00
   0.163E-05 0.790E-13 0.205E+04   0.379E-06 -.134E-07 -.205E+04   -.265E-22 0.000E+00 -.486E+00   0.542E-10 0.210E-10 -.259E+00
   0.163E-05 -.476E-04 0.205E+04   0.379E-06 0.595E-06 -.205E+04   0.199E-22 0.257E-20 -.486E+00   0.553E-10 0.365E-08 -.259E+00
   0.163E-05 0.472E-04 0.205E+04   0.379E-06 -.420E-06 -.205E+04   0.000E+00 0.000E+00 -.486E+00   0.549E-10 -.384E-08 -.259E+00
   -.502E-06 0.860E-13 0.205E+04   -.485E-06 -.134E-07 -.205E+04   0.265E-22 0.000E+00 -.486E+00   0.222E-09 0.218E-10 -.259E+00
   -.502E-06 -.476E-04 0.205E+04   -.485E-06 0.595E-06 -.205E+04   -.132E-22 -.131E-19 -.486E+00   0.220E-09 0.364E-08 -.259E+00
   -.502E-06 0.472E-04 0.205E+04   -.485E-06 -.420E-06 -.205E+04   -.132E-22 0.000E+00 -.486E+00   0.219E-09 -.383E-08 -.259E+00
   0.817E-06 0.369E-04 0.691E+03   0.997E-08 0.121E-06 -.691E+03   0.000E+00 0.000E+00 0.307E+00   -.115E-09 -.113E-07 -.249E+00
   0.817E-06 -.189E-06 0.691E+03   0.997E-08 0.358E-06 -.691E+03   -.529E-22 0.000E+00 0.307E+00   -.115E-09 -.617E-11 -.249E+00
   0.817E-06 -.411E-04 0.691E+03   0.997E-08 -.638E-06 -.691E+03   0.000E+00 -.347E-20 0.307E+00   -.116E-09 0.113E-07 -.249E+00
   0.245E-05 0.369E-04 0.691E+03   0.654E-06 0.121E-06 -.691E+03   0.331E-22 0.000E+00 0.307E+00   -.165E-09 -.113E-07 -.249E+00
   0.245E-05 -.189E-06 0.691E+03   0.654E-06 0.358E-06 -.691E+03   0.529E-22 0.000E+00 0.307E+00   -.163E-09 -.426E-11 -.249E+00
   0.245E-05 -.411E-04 0.691E+03   0.654E-06 -.638E-06 -.691E+03   0.596E-22 -.168E-20 0.307E+00   -.165E-09 0.113E-07 -.249E+00
   0.314E-06 0.369E-04 0.691E+03   -.250E-06 0.121E-06 -.691E+03   -.269E-22 0.000E+00 0.307E+00   0.107E-09 -.113E-07 -.249E+00
   0.314E-06 -.189E-06 0.691E+03   -.250E-06 0.358E-06 -.691E+03   -.778E-22 0.000E+00 0.307E+00   0.105E-09 -.155E-11 -.249E+00
   0.314E-06 -.411E-04 0.691E+03   -.250E-06 -.638E-06 -.691E+03   -.265E-22 -.327E-20 0.307E+00   0.107E-09 0.113E-07 -.249E+00
   -.626E-13 0.776E-13 -.687E+03   -.326E-06 -.248E-07 0.687E+03   0.000E+00 0.000E+00 -.247E+00   -.136E-09 0.997E-10 -.102E+00
   -.668E-13 -.469E-04 -.687E+03   -.326E-06 0.608E-06 0.687E+03   0.132E-22 -.850E-20 -.247E+00   -.136E-09 -.410E-08 -.102E+00
   -.664E-13 0.465E-04 -.687E+03   -.326E-06 -.420E-06 0.687E+03   0.132E-22 0.000E+00 -.247E+00   -.137E-09 0.426E-08 -.102E+00
   0.163E-05 0.830E-13 -.687E+03   0.389E-06 -.248E-07 0.687E+03   -.596E-22 0.000E+00 -.247E+00   -.306E-09 0.101E-09 -.102E+00
   0.163E-05 -.469E-04 -.687E+03   0.389E-06 0.608E-06 0.687E+03   -.993E-23 -.134E-20 -.247E+00   -.304E-09 -.410E-08 -.102E+00
   0.163E-05 0.465E-04 -.687E+03   0.389E-06 -.420E-06 0.687E+03   -.662E-23 0.000E+00 -.247E+00   -.305E-09 0.426E-08 -.102E+00
   -.501E-06 0.830E-13 -.687E+03   -.485E-06 -.248E-07 0.687E+03   -.265E-22 0.000E+00 -.247E+00   -.352E-09 0.100E-09 -.102E+00
   -.501E-06 -.469E-04 -.687E+03   -.485E-06 0.608E-06 0.687E+03   -.728E-22 -.327E-20 -.247E+00   -.354E-09 -.410E-08 -.102E+00
   -.501E-06 0.465E-04 -.687E+03   -.485E-06 -.420E-06 0.687E+03   -.265E-22 0.000E+00 -.247E+00   -.353E-09 0.426E-08 -.102E+00
   0.822E-06 0.360E-04 -.202E+04   -.550E-09 0.110E-06 0.201E+04   0.331E-23 0.000E+00 0.748E+00   0.166E-09 0.125E-08 -.147E-01
   0.822E-06 -.189E-06 -.202E+04   -.550E-09 0.361E-06 0.201E+04   -.132E-22 0.000E+00 0.748E+00   0.167E-09 -.522E-10 -.147E-01
   0.822E-06 -.401E-04 -.202E+04   -.550E-09 -.627E-06 0.201E+04   0.397E-22 -.704E-21 0.748E+00   0.165E-09 -.109E-08 -.147E-01
   0.246E-05 0.360E-04 -.202E+04   0.644E-06 0.110E-06 0.201E+04   -.579E-23 0.000E+00 0.748E+00   -.747E-12 0.126E-08 -.147E-01
   0.246E-05 -.189E-06 -.202E+04   0.644E-06 0.361E-06 0.201E+04   0.529E-22 0.000E+00 0.748E+00   -.387E-12 -.556E-10 -.147E-01
   0.246E-05 -.401E-04 -.202E+04   0.644E-06 -.627E-06 0.201E+04   0.662E-23 -.113E-20 0.748E+00   0.578E-12 -.109E-08 -.147E-01
   0.316E-06 0.360E-04 -.202E+04   -.238E-06 0.110E-06 0.201E+04   0.000E+00 0.000E+00 0.748E+00   -.145E-09 0.125E-08 -.147E-01
   0.316E-06 -.189E-06 -.202E+04   -.238E-06 0.361E-06 0.201E+04   -.132E-22 0.000E+00 0.748E+00   -.145E-09 -.532E-10 -.147E-01
   0.316E-06 -.401E-04 -.202E+04   -.238E-06 -.627E-06 0.201E+04   -.130E-22 -.388E-20 0.748E+00   -.145E-09 -.109E-08 -.147E-01
   -.620E-13 0.766E-13 -.347E+04   -.293E-06 -.153E-07 0.347E+04   0.265E-22 0.000E+00 -.678E+00   0.968E-10 -.164E-09 -.314E+00
   -.698E-13 -.401E-04 -.347E+04   -.293E-06 0.547E-06 0.347E+04   0.265E-22 0.108E-19 -.678E+00   0.972E-10 -.316E-08 -.314E+00
   -.682E-13 0.397E-04 -.347E+04   -.293E-06 -.364E-06 0.347E+04   0.185E-21 0.000E+00 -.678E+00   0.965E-10 0.290E-08 -.314E+00
   0.160E-05 0.738E-13 -.347E+04   0.318E-06 -.153E-07 0.347E+04   0.926E-22 0.000E+00 -.678E+00   0.729E-09 -.163E-09 -.314E+00
   0.160E-05 -.401E-04 -.347E+04   0.318E-06 0.547E-06 0.347E+04   0.794E-22 -.867E-21 -.678E+00   0.732E-09 -.316E-08 -.314E+00
   0.160E-05 0.397E-04 -.347E+04   0.318E-06 -.364E-06 0.347E+04   0.463E-22 0.000E+00 -.678E+00   0.730E-09 0.290E-08 -.314E+00
   -.492E-06 0.108E-12 -.347E+04   -.452E-06 -.153E-07 0.347E+04   0.106E-21 0.000E+00 -.678E+00   0.434E-09 -.165E-09 -.314E+00
   -.492E-06 -.401E-04 -.347E+04   -.452E-06 0.547E-06 0.347E+04   0.132E-21 -.914E-20 -.678E+00   0.431E-09 -.316E-08 -.314E+00
   -.492E-06 0.397E-04 -.347E+04   -.452E-06 -.364E-06 0.347E+04   -.794E-22 0.000E+00 -.678E+00   0.433E-09 0.290E-08 -.314E+00
   0.869E-06 0.450E-04 -.456E+04   -.146E-07 0.735E-07 0.455E+04   -.132E-22 0.000E+00 0.564E+01   -.195E-09 0.135E-07 -.313E+00
   0.869E-06 -.192E-06 -.456E+04   -.146E-07 0.316E-06 0.455E+04   0.629E-22 0.000E+00 0.564E+01   -.193E-09 0.233E-10 -.313E+00
   0.869E-06 -.493E-04 -.456E+04   -.146E-07 -.484E-06 0.455E+04   0.662E-22 0.118E-19 0.564E+01   -.195E-09 -.131E-07 -.313E+00
   0.261E-05 0.450E-04 -.456E+04   0.441E-06 0.735E-07 0.455E+04   -.794E-22 0.000E+00 0.564E+01   -.221E-09 0.135E-07 -.313E+00
   0.261E-05 -.192E-06 -.456E+04   0.441E-06 0.316E-06 0.455E+04   0.265E-22 0.000E+00 0.564E+01   -.223E-09 0.248E-10 -.313E+00
   0.261E-05 -.493E-04 -.456E+04   0.441E-06 -.484E-06 0.455E+04   0.000E+00 0.256E-20 0.564E+01   -.221E-09 -.131E-07 -.313E+00
   0.334E-06 0.450E-04 -.456E+04   -.189E-06 0.735E-07 0.455E+04   0.199E-22 0.000E+00 0.564E+01   -.189E-09 0.135E-07 -.313E+00
   0.334E-06 -.192E-06 -.456E+04   -.189E-06 0.316E-06 0.455E+04   -.596E-22 0.000E+00 0.564E+01   -.189E-09 0.253E-10 -.313E+00
   0.334E-06 -.493E-04 -.456E+04   -.189E-06 -.484E-06 0.455E+04   0.132E-22 -.109E-19 0.564E+01   -.189E-09 -.131E-07 -.313E+00
   0.574E-04 -.569E-04 0.132E+02   -.126E-12 -.110E-12 -.218E-10   0.662E-21 -.386E-19 -.146E+01   0.106E-08 0.229E-09 -.115E+02

 POSITION                                       TOTAL-FORCE (eV/Angst)
      0.00000      0.00000      0.00000        -0.000000     -0.000000      0.454692
      0.00000      2.56680      0.00000        -0.000000      0.000000      0.454692
      0.00000      5.13360      0.00000        -0.000000     -0.000000      0.454692
      3.63000      0.00000      0.00000         0.000000     -0.000000      0.454692
      3.63000      2.56680      0.00000        -0.000000     -0.000000      0.454692
      3.63000      5.13360      0.00000         0.000000     -0.000000      0.454692
      7.26000      0.00000      0.00000         0.000000     -0.000000      0.454692
      7.26000      2.56680      0.00000        -0.000000      0.000000      0.454692
      7.26000      5.13360      0.00000        -0.000000     -0.000000      0.454692
      1.81500      1.28340      1.28340         0.000000     -0.000000     -0.420568
      1.81500      3.85020      1.28340         0.000000     -0.000000     -0.420568
      1.81500      6.41699      1.28340        -0.000000      0.000000     -0.420568
      5.44500      1.28340      1.28340        -0.000000     -0.000000     -0.420568
      5.44500      3.85020      1.28340         0.000000     -0.000000     -0.420568
      5.44500      6.41699      1.28340         0.000000     -0.000000     -0.420568
      9.07500      1.28340      1.28340        -0.000000     -0.000000     -0.420568
      9.07500      3.85020      1.28340         0.000000     -0.000000     -0.420568
      9.07500      6.41699      1.28340         0.000000      0.000000     -0.420568
      0.00000      0.00000      2.53666        -0.000000     -0.000000      0.011582
      0.00000      2.56680      2.53666        -0.000000      0.000000      0.011582
      0.00000      5.13360      2.53666        -0.000000     -0.000000      0.011582
      3.63000      0.00000      2.53666        -0.000000     -0.000000      0.011582
      3.63000      2.56680      2.53666        -0.000000      0.000000      0.011582
      3.63000      5.13360      2.53666        -0.000000     -0.000000      0.011582
      7.26000      0.00000      2.53666         0.000000     -0.000000      0.011582
      7.26000      2.56680      2.53666         0.000000      0.000000      0.011582
      7.26000      5.13360      2.53666         0.000000     -0.000000      0.011582
      1.81500      1.28340      3.79249        -0.000000     -0.000000      0.015759
      1.81500      3.85020      3.79249         0.000000     -0.000000      0.015759
      1.81500      6.41699      3.79249        -0.000000      0.000000      0.015759
      5.44500      1.28340      3.79249         0.000000      0.000000      0.015759
      5.44500      3.85020      3.79249         0.000000     -0.000000      0.015759
      5.44500      6.41699      3.79249        -0.000000     -0.000000      0.015759
      9.07500      1.28340      3.79249         0.000000     -0.000000      0.015759
      9.07500      3.85020      3.79249         0.000000     -0.000000      0.015759
      9.07500      6.41699      3.79249        -0.000000     -0.000000      0.015759
     -0.00000      0.00000      5.06188        -0.000000     -0.000000     -0.013932
     -0.00000      2.56680      5.06188        -0.000000      0.000000     -0.013932
      0.00000      5.13360      5.06188         0.000000     -0.000000     -0.013932
      3.63000      0.00000      5.06188        -0.000000     -0.000000     -0.013932
      3.63000      2.56680      5.06188         0.000000      0.000000     -0.013932
      3.63000      5.13360      5.06188        -0.000000     -0.000000     -0.013932
      7.26000      0.00000      5.06188        -0.000000     -0.000000     -0.013932
      7.26000      2.56680      5.06188         0.000000     -0.000000     -0.013932
      7.26000      5.13360      5.06188        -0.000000     -0.000000     -0.013932
      1.81500      1.28340      6.29530         0.000000     -0.000000     -0.021438
      1.81500      3.85020      6.29530        -0.000000     -0.000000     -0.021438
      1.81500      6.41699      6.29530        -0.000000     -0.000000     -0.021438
      5.44500      1.28340      6.29530         0.000000     -0.000000     -0.021438
      5.44500      3.85020      6.29530         0.000000     -0.000000     -0.021438
      5.44500      6.41699      6.29530         0.000000      0.000000     -0.021438
      9.07500      1.28340      6.29530        -0.000000     -0.000000     -0.021438
      9.07500      3.85020      6.29530         0.000000     -0.000000     -0.021438
      9.07500      6.41699      6.29530        -0.000000     -0.000000     -0.021438
      0.00000      0.00000      7.61385        -0.000000     -0.000000     -0.009814
     -0.00000      2.56680      7.61385        -0.000000     -0.000000     -0.009814
      0.00000      5.13360      7.61385         0.000000     -0.000000     -0.009814
      3.63000      0.00000      7.61385        -0.000000     -0.000000     -0.009814
      3.63000      2.56680      7.61385         0.000000      0.000000     -0.009814
      3.63000      5.13360      7.61385        -0.000000     -0.000000     -0.009814
      7.26000     -0.00000      7.61385         0.000000     -0.000000     -0.009814
      7.26000      2.56680      7.61385         0.000000      0.000000     -0.009814
      7.26000      5.13360      7.61385        -0.000000     -0.000000     -0.009814
      1.81500      1.28340      8.76046         0.000000     -0.000000     -0.016281
      1.81500      3.85020      8.76046         0.000000     -0.000000     -0.016281
      1.81500      6.41699      8.76046        -0.000000     -0.000000     -0.016281
      5.44500      1.28340      8.76046         0.000000     -0.000000     -0.016281
      5.44500      3.85020      8.76046        -0.000000     -0.000000     -0.016281
      5.44500      6.41699      8.76046        -0.000000      0.000000     -0.016281
      9.07500      1.28340      8.76046        -0.000000     -0.000000     -0.016281
      9.07500      3.85020      8.76046        -0.000000     -0.000000     -0.016281
      9.07500      6.41699      8.76046        -0.000000      0.000000     -0.016281
    total drift:                                0.000057     -0.000057      0.193162

  FREE ENERGIE OF THE ION-ELECTRON SYSTEM (eV)
  free  energy   TOTEN  =      -279.38940254 eV

  energy  without entropy=     -279.32886606  energy(sigma->0) =     -279.36922371

 d Force = 0.2252073E-02[-0.161E-04, 0.452E-02]  d Energy = 0.2676147E-02-0.424E-03
 d Force =-0.2323326E+03[-0.232E+03,-0.232E+03]  d Ewald  =-0.2323326E+03 0.166E-05

 stress matrix after NEB project (eV)
    -42.59724      0.00000      0.00000
      0.00000    -45.93497      0.00000
      0.00000      0.00000    -11.75142
  FORCES: max atom, RMS     0.021438    0.013217
  FORCE total and by dimension    0.112152    0.021438
  Stress total and by dimension   63.738857   45.934970
 Conjugate gradient step on ions:
 trial-energy change:   -0.002676  1 .order   -0.002252   -0.004520    0.000016
  (g-gl).g = 0.162E-02      g.g   = 0.185E-02  gl.gl    = 0.155E-01
 g(Force)  = 0.185E-02   g(Stress)= 0.000E+00 ortho     = 0.360E-03
 gamma     =   0.10431
 trial     =   2.39456
 opt step  =   2.38606  (harmonic =   2.38606) maximal distance =0.00211944
 next E    =  -279.388978   (d E  =  -0.00225)

 reached required accuracy - stopping structural energy minimisation