 vasp.6.3.2 27Jun22 (build Aug 17 2022 15:43:34) complex

 executed on           tv2STDVTST date 2025.02.03  10:47:12

 INCAR:
   ISTART = 0
   ICHARG = 2
   IPIPOL = 3
   IVDW = 11
   IDIPOL = 3
   IVDW = 11
   ISPIN = 2
   ENCUT = 400
   PREC = Normal
   EDIFF = 2E-04
   GGA = PE
   ISMEAR = 1
   SIGMA = 0.2
   LREAL = .FALSE.
   ISYM = 1
   NSW = 800
   IBRION = 2
   POTIM = 0.5
   ISIF = 2
   EDIFFG = -.03
   NPAR = 4
   LWAVE = .FALSE.
   LCHARG = .FALSE.

 POTCAR:    PAW_PBE Cu 22Jun2005
|           W    W    AA    RRRRR   N    N  II  N    N   GGGG   !!!           |
|           W    W   A  A   R    R  NN   N  II  NN   N  G    G  !!!           |
|           W    W  A    A  R    R  N N  N  II  N N  N  G       !!!           |
|           W WW W  AAAAAA  RRRRR   N  N N  II  N  N N  G  GGG   !            |
|           WW  WW  A    A  R   R   N   NN  II  N   NN  G    G                |
|           W    W  A    A  R    R  N    N  II  N    N   GGGG   !!!           |
|     You use a magnetic or noncollinear calculation, but did not specify     |
|     the initial magnetic moment with the MAGMOM tag. Note that a            |
|     default of 1 will be used for all atoms. This ferromagnetic setup       |
|     may break the symmetry of the crystal, in particular it may rule        |
|     out finding an antiferromagnetic solution. Thence, we recommend         |
|     setting the initial magnetic moment manually or verifying carefully     |
|     that this magnetic setup is desired.                                    |

   TITEL  = PAW_PBE Cu 22Jun2005
   POMASS =   63.546; ZVAL   =   11.000    mass and valenz
   ENMAX  =  295.446; ENMIN  =  221.585 eV

  PAW_PBE Cu 22Jun2005                  :

 POSCAR: FCC Cu
  positions in cartesian coordinates
  velocities in cartesian coordinates
 exchange correlation table for  LEXCH =        8
   RHO(1)=    0.500       N(1)  =     2000
   RHO(2)=  100.500       N(2)  =     4000

 VTST: version 4.2, (08/11/21)

 CHAIN: initializing optimizer

 OPT: Using VASP Conjugate-Gradient optimizer
 CHAIN: Read ICHAIN            0

 POSCAR: FCC Cu
  positions in cartesian coordinates
  velocities in cartesian coordinates

 ion  position               nearest neighbor table
   1  0.000  0.000  0.000-  19 2.57  12 2.57  18 2.57  10 2.57  16 2.57   3 2.57   2 2.57
   2  0.000  0.333  0.000-  20 2.57  10 2.57  16 2.57  11 2.57  17 2.57   1 2.57   3 2.57
   3  0.000  0.667  0.000-  21 2.57  12 2.57  11 2.57  18 2.57  17 2.57   1 2.57   2 2.57
   4  0.333  0.000  0.000-  22 2.57  12 2.57  15 2.57  10 2.57  13 2.57   6 2.57   5 2.57
   5  0.333  0.333  0.000-  23 2.57  10 2.57  13 2.57  11 2.57  14 2.57   4 2.57   6 2.57
   6  0.333  0.667  0.000-  24 2.57  12 2.57  11 2.57  15 2.57  14 2.57   4 2.57   5 2.57
   7  0.667  0.000  0.000-  25 2.57  18 2.57  16 2.57  15 2.57  13 2.57   9 2.57   8 2.57
   8  0.667  0.333  0.000-  26 2.57  16 2.57  17 2.57  13 2.57  14 2.57   7 2.57   9 2.57
   9  0.667  0.667  0.000-  27 2.57  18 2.57  17 2.57  15 2.57  14 2.57   7 2.57   8 2.57
  10  0.167  0.167  0.057-  28 2.57  23 2.57  20 2.57  19 2.57  22 2.57   5 2.57   2 2.57   1 2.57
                             4 2.57  12 2.57  11 2.57
  11  0.167  0.500  0.057-  29 2.57  21 2.57  23 2.57  24 2.57  20 2.57   3 2.57   5 2.57   6 2.57
                             2 2.57  10 2.57  12 2.57
  12  0.167  0.833  0.057-  30 2.57  22 2.57  19 2.57  24 2.57  21 2.57   4 2.57   1 2.57   6 2.57
                             3 2.57  10 2.57  11 2.57
  13  0.500  0.167  0.057-  31 2.57  23 2.57  22 2.57  26 2.57   5 2.57  25 2.57   4 2.57   8 2.57
                             7 2.57  15 2.57  14 2.57
  14  0.500  0.500  0.057-  32 2.57  24 2.57  23 2.57  27 2.57  26 2.57   6 2.57   5 2.57   9 2.57
                             8 2.57  13 2.57  15 2.57
  15  0.500  0.833  0.057-  33 2.57  22 2.57  24 2.57  25 2.57   4 2.57  27 2.57   6 2.57   7 2.57
                             9 2.57  13 2.57  14 2.57
  16  0.833  0.167  0.057-  34 2.57  26 2.57  20 2.57  25 2.57  19 2.57   8 2.57   2 2.57   7 2.57
                             1 2.57  18 2.57  17 2.57
  17  0.833  0.500  0.057-  35 2.57  27 2.57  26 2.57  21 2.57  20 2.57   9 2.57   8 2.57   3 2.57
                             2 2.57  16 2.57  18 2.57
  18  0.833  0.833  0.057-  36 2.57  25 2.57  19 2.57  27 2.57  21 2.57   7 2.57   1 2.57   9 2.57
                             3 2.57  16 2.57  17 2.57
  19  0.000  0.000  0.113-   1 2.57  37 2.57  12 2.57  18 2.57  10 2.57  16 2.57  30 2.57  36 2.57
                            28 2.57  34 2.57  21 2.57  20 2.57
  20  0.000  0.333  0.113-   2 2.57  38 2.57  10 2.57  16 2.57  11 2.57  17 2.57  28 2.57  34 2.57
                            29 2.57  35 2.57  19 2.57  21 2.57
  21  0.000  0.667  0.113-   3 2.57  39 2.57  12 2.57  11 2.57  18 2.57  17 2.57  30 2.57  29 2.57
                            36 2.57  35 2.57  19 2.57  20 2.57
  22  0.333  0.000  0.113-   4 2.57  40 2.57  12 2.57  15 2.57  10 2.57  13 2.57  30 2.57  33 2.57
                            28 2.57  31 2.57  24 2.57  23 2.57
  23  0.333  0.333  0.113-   5 2.57  41 2.57  10 2.57  13 2.57  11 2.57  14 2.57  28 2.57  31 2.57
                            29 2.57  32 2.57  22 2.57  24 2.57
  24  0.333  0.667  0.113-   6 2.57  42 2.57  12 2.57  11 2.57  15 2.57  14 2.57  30 2.57  29 2.57
                            33 2.57  32 2.57  22 2.57  23 2.57
  25  0.667  0.000  0.113-   7 2.57  43 2.57  18 2.57  16 2.57  15 2.57  36 2.57  13 2.57  34 2.57
                            33 2.57  31 2.57  27 2.57  26 2.57
  26  0.667  0.333  0.113-   8 2.57  44 2.57  16 2.57  17 2.57  13 2.57  34 2.57  14 2.57  35 2.57
                            31 2.57  32 2.57  25 2.57  27 2.57
  27  0.667  0.667  0.113-   9 2.57  45 2.57  18 2.57  17 2.57  15 2.57  14 2.57  36 2.57  35 2.57
                            33 2.57  32 2.57  25 2.57  26 2.57
  28  0.167  0.167  0.170-  10 2.57  46 2.57  41 2.57  38 2.57  37 2.57  40 2.57  23 2.57  20 2.57
                            19 2.57  22 2.57  30 2.57  29 2.57
  29  0.167  0.500  0.170-  11 2.57  47 2.57  39 2.57  41 2.57  42 2.57  38 2.57  21 2.57  23 2.57
                            24 2.57  20 2.57  28 2.57  30 2.57
  30  0.167  0.833  0.170-  12 2.57  48 2.57  40 2.57  37 2.57  22 2.57  19 2.57  42 2.57  39 2.57
                            24 2.57  21 2.57  28 2.57  29 2.57
  31  0.500  0.167  0.170-  13 2.57  49 2.57  41 2.57  40 2.57  23 2.57  44 2.57  22 2.57  43 2.57
                            26 2.57  25 2.57  33 2.57  32 2.57
  32  0.500  0.500  0.170-  14 2.57  50 2.57  42 2.57  41 2.57  24 2.57  23 2.57  45 2.57  44 2.57
                            27 2.57  26 2.57  31 2.57  33 2.57
  33  0.500  0.833  0.170-  15 2.57  51 2.57  40 2.57  22 2.57  42 2.57  43 2.57  24 2.57  25 2.57
                            45 2.57  27 2.57  31 2.57  32 2.57
  34  0.833  0.167  0.170-  16 2.57  52 2.57  44 2.57  38 2.57  43 2.57  26 2.57  37 2.57  20 2.57
                            25 2.57  19 2.57  36 2.57  35 2.57
  35  0.833  0.500  0.170-  17 2.57  53 2.57  45 2.57  44 2.57  39 2.57  38 2.57  27 2.57  26 2.57
                            21 2.57  20 2.57  34 2.57  36 2.57
  36  0.833  0.833  0.170-  18 2.57  54 2.57  43 2.57  37 2.57  25 2.57  45 2.57  19 2.57  39 2.57
                            27 2.57  21 2.57  34 2.57  35 2.57
  37  0.000  0.000  0.226-  55 2.57  19 2.57  30 2.57  48 2.57  36 2.57  54 2.57  28 2.57  46 2.57
                            34 2.57  52 2.57  39 2.57  38 2.57
  38  0.000  0.333  0.226-  56 2.57  20 2.57  28 2.57  46 2.57  34 2.57  52 2.57  29 2.57  47 2.57
                            35 2.57  53 2.57  37 2.57  39 2.57
  39  0.000  0.667  0.226-  57 2.57  21 2.57  30 2.57  29 2.57  48 2.57  47 2.57  36 2.57  35 2.57
                            54 2.57  53 2.57  37 2.57  38 2.57
  40  0.333  0.000  0.226-  58 2.57  22 2.57  30 2.57  33 2.57  48 2.57  51 2.57  28 2.57  31 2.57
                            46 2.57  49 2.57  42 2.57  41 2.57
  41  0.333  0.333  0.226-  59 2.57  23 2.57  28 2.57  31 2.57  46 2.57  49 2.57  29 2.57  32 2.57
                            47 2.57  50 2.57  40 2.57  42 2.57
  42  0.333  0.667  0.226-  60 2.57  24 2.57  30 2.57  29 2.57  33 2.57  32 2.57  48 2.57  47 2.57
                            51 2.57  50 2.57  40 2.57  41 2.57
  43  0.667  0.000  0.226-  61 2.57  25 2.57  36 2.57  54 2.57  34 2.57  52 2.57  33 2.57  51 2.57
                            31 2.57  49 2.57  45 2.57  44 2.57
  44  0.667  0.333  0.226-  62 2.57  26 2.57  34 2.57  52 2.57  35 2.57  53 2.57  31 2.57  49 2.57
                            32 2.57  50 2.57  43 2.57  45 2.57
  45  0.667  0.667  0.226-  63 2.57  27 2.57  36 2.57  35 2.57  54 2.57  53 2.57  33 2.57  32 2.57
                            51 2.57  50 2.57  43 2.57  44 2.57
  46  0.167  0.167  0.283-  28 2.57  56 2.57  59 2.57  38 2.57  41 2.57  58 2.57  55 2.57  40 2.57
                            37 2.57  48 2.57  47 2.57
  47  0.167  0.500  0.283-  29 2.57  56 2.57  57 2.57  59 2.57  60 2.57  38 2.57  39 2.57  41 2.57
                            42 2.57  46 2.57  48 2.57
  48  0.167  0.833  0.283-  30 2.57  55 2.57  58 2.57  37 2.57  40 2.57  57 2.57  60 2.57  39 2.57
                            42 2.57  46 2.57  47 2.57
  49  0.500  0.167  0.283-  31 2.57  59 2.57  41 2.57  58 2.57  40 2.57  62 2.57  44 2.57  61 2.57
                            43 2.57  51 2.57  50 2.57
  50  0.500  0.500  0.283-  32 2.57  59 2.57  60 2.57  41 2.57  42 2.57  62 2.57  63 2.57  44 2.57
                            45 2.57  49 2.57  51 2.57
  51  0.500  0.833  0.283-  33 2.57  58 2.57  40 2.57  60 2.57  42 2.57  61 2.57  43 2.57  63 2.57
                            45 2.57  49 2.57  50 2.57
  52  0.833  0.167  0.283-  34 2.57  62 2.57  44 2.57  56 2.57  38 2.57  61 2.57  43 2.57  55 2.57
                            37 2.57  54 2.57  53 2.57
  53  0.833  0.500  0.283-  35 2.57  62 2.57  63 2.57  44 2.57  45 2.57  56 2.57  57 2.57  38 2.57
                            39 2.57  52 2.57  54 2.57
  54  0.833  0.833  0.283-  36 2.57  61 2.57  43 2.57  55 2.57  37 2.57  63 2.57  45 2.57  57 2.57
                            39 2.57  52 2.57  53 2.57
  55  0.000  0.000  0.339-  37 2.57  48 2.57  54 2.57  46 2.57  52 2.57  57 2.57  56 2.57
  56  0.000  0.333  0.339-  38 2.57  46 2.57  52 2.57  47 2.57  53 2.57  55 2.57  57 2.57
  57  0.000  0.667  0.339-  39 2.57  47 2.57  48 2.57  53 2.57  54 2.57  55 2.57  56 2.57
  58  0.333  0.000  0.339-  40 2.57  48 2.57  51 2.57  46 2.57  49 2.57  60 2.57  59 2.57
  59  0.333  0.333  0.339-  41 2.57  46 2.57  49 2.57  47 2.57  50 2.57  58 2.57  60 2.57
  60  0.333  0.667  0.339-  42 2.57  47 2.57  48 2.57  50 2.57  51 2.57  58 2.57  59 2.57
  61  0.667  0.000  0.339-  43 2.57  54 2.57  52 2.57  51 2.57  49 2.57  63 2.57  62 2.57
  62  0.667  0.333  0.339-  44 2.57  52 2.57  53 2.57  49 2.57  50 2.57  61 2.57  63 2.57
  63  0.667  0.667  0.339-  45 2.57  53 2.57  54 2.57  50 2.57  51 2.57  61 2.57  62 2.57

  LATTYP: Found a simple orthorhombic cell.
 ALAT       =     7.7003931999
 B/A-ratio  =     1.4142135422
 C/A-ratio  =     2.9479524501

  Lattice vectors:

 A1 = (   0.0000000000,  -7.7003931999,   0.0000000000)
[...]
 Edisp (eV)  -22.76827

 E6    (eV) :    -8.9969
 E8    (eV) :   -13.7714
 % E8        : 60.48

  FORCE on cell =-STRESS in cart. coord.  units (eV):
  Direction    XX          YY          ZZ          XY          YZ          ZX
  Alpha Z  1524.82201  1524.82201  1524.82201
  Ewald  351128.65259352618.44291************    -0.00000     0.00000    -0.00000
  Hartree374795.89667375813.90313************     0.00000     0.00000    -0.00000
  E(xc)   -4048.51867 -4046.82237 -4053.06674     0.00000    -0.00000     0.00000
  Local  ************************749592.96215     0.00000    -0.00000     0.00000
  n-local -1374.00603 -1371.03683 -1380.04306    -1.17350    -0.00000     0.00000
  augment  5960.02305  5950.28071  5968.91081     0.00000     0.00000     0.00000
  Kinetic  5658.97896  5641.18399  5676.01749     0.66091     0.00000    -0.00000
  Fock        0.00000     0.00000     0.00000     0.00000     0.00000     0.00000
  vdW       -27.82063   -28.11163   -18.02691    -0.00000     0.00000    -0.00000
  Total     -32.44201   -41.21356    -7.26309     0.00000     0.00000     0.00000
  in kB     -27.30513   -34.68778    -6.11305     0.00000     0.00000     0.00000

 VOLUME and BASIS-vectors are now :
  energy-cutoff  :      400.00
  volume of cell :     1903.59
      direct lattice vectors                 reciprocal lattice vectors
    10.890000343  0.000000000  0.000000000     0.091827362  0.000000000  0.000000000
     0.000000000  7.700393200  0.000000000     0.000000000  0.129863498  0.000000000
     0.000000000  0.000000000 22.700393000     0.000000000  0.000000000  0.044052101

  length of vectors
    10.890000343  7.700393200 22.700393000     0.091827362  0.129863498  0.044052101

 FORCES acting on ions
    electron-ion (+dipol)            ewald-force                    non-local-force                 convergence-correction
   -.464E-13 0.544E-13 0.411E+04   -.192E-06 -.146E-08 -.410E+04   0.000E+00 0.000E+00 -.540E+01   0.165E-09 0.164E-10 -.642E-02
   -.481E-13 -.372E-04 0.411E+04   -.192E-06 0.439E-06 -.410E+04   -.827E-24 -.124E-20 -.540E+01   0.166E-09 -.189E-08 -.642E-02
   -.413E-13 0.368E-04 0.411E+04   -.192E-06 -.360E-06 -.410E+04   0.132E-22 0.000E+00 -.540E+01   0.166E-09 0.188E-08 -.642E-02
   0.176E-05 0.775E-13 0.411E+04   0.285E-06 -.146E-08 -.410E+04   0.000E+00 0.000E+00 -.540E+01   -.353E-09 0.146E-10 -.642E-02
   0.176E-05 -.372E-04 0.411E+04   0.285E-06 0.439E-06 -.410E+04   -.132E-22 -.547E-20 -.540E+01   -.354E-09 -.189E-08 -.642E-02
   0.176E-05 0.368E-04 0.411E+04   0.285E-06 -.360E-06 -.410E+04   0.132E-22 0.000E+00 -.540E+01   -.352E-09 0.188E-08 -.642E-02
   -.542E-06 0.117E-12 0.411E+04   -.295E-06 -.146E-08 -.410E+04   0.132E-22 0.000E+00 -.540E+01   0.141E-09 0.220E-10 -.642E-02
   -.542E-06 -.372E-04 0.411E+04   -.295E-06 0.439E-06 -.410E+04   -.331E-23 -.566E-20 -.540E+01   0.140E-09 -.189E-08 -.642E-02
   -.542E-06 0.368E-04 0.411E+04   -.295E-06 -.360E-06 -.410E+04   0.199E-22 0.000E+00 -.540E+01   0.140E-09 0.188E-08 -.642E-02
   0.806E-06 0.468E-04 0.292E+04   0.198E-07 0.104E-06 -.292E+04   0.116E-22 0.000E+00 -.167E+00   0.307E-10 -.157E-08 0.190E-01
   0.806E-06 -.188E-06 0.292E+04   0.198E-07 0.308E-06 -.292E+04   0.331E-22 0.000E+00 -.167E+00   0.309E-10 -.292E-10 0.190E-01
   0.806E-06 -.510E-04 0.292E+04   0.198E-07 -.572E-06 -.292E+04   -.132E-22 -.126E-19 -.167E+00   0.310E-10 0.162E-08 0.190E-01
   0.242E-05 0.468E-04 0.292E+04   0.585E-06 0.104E-06 -.292E+04   0.116E-22 0.000E+00 -.167E+00   -.116E-09 -.157E-08 0.190E-01
   0.242E-05 -.188E-06 0.292E+04   0.585E-06 0.308E-06 -.292E+04   0.662E-23 0.000E+00 -.167E+00   -.116E-09 -.253E-10 0.190E-01
   0.242E-05 -.510E-04 0.292E+04   0.585E-06 -.572E-06 -.292E+04   -.248E-22 -.378E-20 -.167E+00   -.118E-09 0.161E-08 0.190E-01
   0.310E-06 0.468E-04 0.292E+04   -.192E-06 0.104E-06 -.292E+04   0.331E-23 0.000E+00 -.167E+00   0.204E-09 -.157E-08 0.190E-01
   0.310E-06 -.188E-06 0.292E+04   -.192E-06 0.308E-06 -.292E+04   -.331E-22 0.000E+00 -.167E+00   0.204E-09 -.292E-10 0.190E-01
   0.310E-06 -.510E-04 0.292E+04   -.192E-06 -.572E-06 -.292E+04   0.298E-22 -.950E-20 -.167E+00   0.206E-09 0.162E-08 0.190E-01
   -.323E-13 0.435E-13 0.146E+04   -.305E-06 -.103E-07 -.145E+04   0.132E-22 0.000E+00 -.496E+00   0.132E-09 0.492E-11 -.983E-01
   -.268E-13 -.382E-04 0.146E+04   -.305E-06 0.596E-06 -.145E+04   -.794E-22 -.122E-21 -.496E+00   0.129E-09 0.326E-08 -.983E-01
   -.232E-13 0.378E-04 0.146E+04   -.305E-06 -.423E-06 -.145E+04   0.132E-22 0.000E+00 -.496E+00   0.127E-09 -.324E-08 -.983E-01
   0.163E-05 0.521E-13 0.146E+04   0.378E-06 -.103E-07 -.145E+04   -.529E-22 0.000E+00 -.496E+00   -.390E-09 0.498E-11 -.983E-01
   0.163E-05 -.382E-04 0.146E+04   0.378E-06 0.596E-06 -.145E+04   -.463E-22 -.332E-20 -.496E+00   -.390E-09 0.325E-08 -.983E-01
   0.163E-05 0.378E-04 0.146E+04   0.378E-06 -.423E-06 -.145E+04   0.132E-22 0.000E+00 -.496E+00   -.388E-09 -.324E-08 -.983E-01
   -.502E-06 0.660E-13 0.146E+04   -.491E-06 -.103E-07 -.145E+04   0.132E-21 0.000E+00 -.496E+00   0.142E-09 0.427E-11 -.983E-01
   -.502E-06 -.382E-04 0.146E+04   -.491E-06 0.596E-06 -.145E+04   0.265E-22 0.106E-20 -.496E+00   0.145E-09 0.326E-08 -.983E-01
   -.502E-06 0.378E-04 0.146E+04   -.491E-06 -.423E-06 -.145E+04   -.794E-22 0.000E+00 -.496E+00   0.145E-09 -.324E-08 -.983E-01
   0.813E-06 0.462E-04 -.647E+01   0.157E-07 0.120E-06 0.648E+01   0.331E-22 0.000E+00 -.587E-01   0.667E-10 0.404E-09 0.439E-01
   0.813E-06 -.189E-06 -.647E+01   0.157E-07 0.351E-06 0.648E+01   -.463E-22 0.000E+00 -.587E-01   0.667E-10 0.501E-10 0.439E-01
   0.813E-06 -.503E-04 -.647E+01   0.157E-07 -.636E-06 0.648E+01   -.331E-23 0.901E-20 -.587E-01   0.674E-10 -.483E-09 0.439E-01
   0.244E-05 0.462E-04 -.647E+01   0.648E-06 0.120E-06 0.648E+01   0.662E-23 0.000E+00 -.587E-01   0.104E-09 0.403E-09 0.439E-01
   0.244E-05 -.189E-06 -.647E+01   0.648E-06 0.351E-06 0.648E+01   0.199E-22 0.000E+00 -.587E-01   0.104E-09 0.531E-10 0.439E-01
   0.244E-05 -.503E-04 -.647E+01   0.648E-06 -.636E-06 0.648E+01   -.331E-22 -.133E-19 -.587E-01   0.105E-09 -.484E-09 0.439E-01
   0.313E-06 0.462E-04 -.647E+01   -.239E-06 0.120E-06 0.648E+01   0.232E-22 0.000E+00 -.587E-01   0.758E-11 0.408E-09 0.439E-01
   0.313E-06 -.189E-06 -.647E+01   -.239E-06 0.351E-06 0.648E+01   -.662E-23 0.000E+00 -.587E-01   0.778E-11 0.567E-10 0.439E-01
   0.313E-06 -.503E-04 -.647E+01   -.239E-06 -.636E-06 0.648E+01   0.993E-23 -.681E-20 -.587E-01   0.621E-11 -.487E-09 0.439E-01
   -.443E-13 0.481E-13 -.141E+04   -.303E-06 -.120E-07 0.141E+04   0.000E+00 0.000E+00 0.866E+00   -.137E-09 0.167E-10 -.181E+00
   -.275E-13 -.497E-04 -.141E+04   -.303E-06 0.597E-06 0.141E+04   0.529E-22 0.125E-19 0.866E+00   -.135E-09 0.145E-07 -.181E+00
   -.332E-13 0.494E-04 -.141E+04   -.303E-06 -.426E-06 0.141E+04   0.106E-21 0.000E+00 0.866E+00   -.136E-09 -.144E-07 -.181E+00
   0.164E-05 0.539E-13 -.141E+04   0.380E-06 -.120E-07 0.141E+04   -.265E-22 0.000E+00 0.866E+00   0.222E-09 0.140E-10 -.181E+00
   0.164E-05 -.497E-04 -.141E+04   0.380E-06 0.597E-06 0.141E+04   0.265E-22 0.183E-20 0.866E+00   0.221E-09 0.145E-07 -.181E+00
   0.164E-05 0.494E-04 -.141E+04   0.380E-06 -.426E-06 0.141E+04   0.159E-21 0.000E+00 0.866E+00   0.222E-09 -.144E-07 -.181E+00
   -.505E-06 0.571E-13 -.141E+04   -.486E-06 -.120E-07 0.141E+04   -.225E-21 0.000E+00 0.866E+00   -.297E-09 0.125E-10 -.181E+00
   -.505E-06 -.497E-04 -.141E+04   -.486E-06 0.597E-06 0.141E+04   0.212E-21 -.807E-20 0.866E+00   -.298E-09 0.145E-07 -.181E+00
   -.505E-06 0.494E-04 -.141E+04   -.486E-06 -.426E-06 0.141E+04   0.132E-22 0.000E+00 0.866E+00   -.298E-09 -.144E-07 -.181E+00
   0.800E-06 0.462E-04 -.295E+04   0.198E-07 0.101E-06 0.295E+04   -.331E-22 0.000E+00 -.715E+00   -.305E-09 0.456E-08 0.143E+00
   0.800E-06 -.188E-06 -.295E+04   0.198E-07 0.306E-06 0.295E+04   0.794E-22 0.000E+00 -.715E+00   -.304E-09 0.442E-10 0.143E+00
   0.800E-06 -.504E-04 -.295E+04   0.198E-07 -.575E-06 0.295E+04   0.132E-22 0.291E-20 -.715E+00   -.304E-09 -.449E-08 0.143E+00
   0.240E-05 0.462E-04 -.295E+04   0.597E-06 0.101E-06 0.295E+04   0.794E-22 0.000E+00 -.715E+00   -.154E-09 0.455E-08 0.143E+00
   0.240E-05 -.188E-06 -.295E+04   0.597E-06 0.306E-06 0.295E+04   0.265E-22 0.000E+00 -.715E+00   -.156E-09 0.454E-10 0.143E+00
   0.240E-05 -.504E-04 -.295E+04   0.597E-06 -.575E-06 0.295E+04   0.529E-22 -.814E-20 -.715E+00   -.155E-09 -.449E-08 0.143E+00
   0.307E-06 0.462E-04 -.295E+04   -.186E-06 0.101E-06 0.295E+04   -.132E-21 0.000E+00 -.715E+00   -.833E-10 0.455E-08 0.143E+00
   0.307E-06 -.188E-06 -.295E+04   -.186E-06 0.306E-06 0.295E+04   0.000E+00 0.000E+00 -.715E+00   -.831E-10 0.450E-10 0.143E+00
   0.307E-06 -.504E-04 -.295E+04   -.186E-06 -.575E-06 0.295E+04   -.132E-21 -.130E-19 -.715E+00   -.834E-10 -.448E-08 0.143E+00
   -.103E-13 0.817E-13 -.411E+04   -.204E-06 0.365E-08 0.411E+04   -.579E-23 0.000E+00 0.523E+01   -.900E-10 -.409E-10 0.229E+00
   -.270E-14 -.456E-04 -.411E+04   -.204E-06 0.455E-06 0.411E+04   0.000E+00 -.128E-19 0.523E+01   -.907E-10 0.778E-08 0.229E+00
   -.127E-13 0.452E-04 -.411E+04   -.204E-06 -.365E-06 0.411E+04   0.000E+00 0.000E+00 0.523E+01   -.908E-10 -.786E-08 0.229E+00
   0.174E-05 0.540E-13 -.411E+04   0.290E-06 0.365E-08 0.411E+04   0.000E+00 0.000E+00 0.523E+01   0.524E-09 -.412E-10 0.229E+00
   0.174E-05 -.456E-04 -.411E+04   0.290E-06 0.455E-06 0.411E+04   -.662E-23 0.424E-20 0.523E+01   0.526E-09 0.778E-08 0.229E+00
   0.174E-05 0.452E-04 -.411E+04   0.290E-06 -.365E-06 0.411E+04   -.662E-23 0.000E+00 0.523E+01   0.524E-09 -.786E-08 0.229E+00
   -.535E-06 0.886E-13 -.411E+04   -.324E-06 0.365E-08 0.411E+04   0.199E-22 0.000E+00 0.523E+01   -.268E-10 -.388E-10 0.229E+00
   -.535E-06 -.456E-04 -.411E+04   -.324E-06 0.455E-06 0.411E+04   -.744E-23 0.115E-19 0.523E+01   -.276E-10 0.778E-08 0.229E+00
   -.535E-06 0.452E-04 -.411E+04   -.324E-06 -.365E-06 0.411E+04   0.265E-22 0.000E+00 0.523E+01   -.260E-10 -.786E-08 0.229E+00
   0.459E-04 -.435E-04 0.528E+01   0.273E-12 0.541E-13 0.136E-10   0.302E-21 -.608E-19 -.664E+01   -.640E-09 0.316E-09 0.134E+01

 POSITION                                       TOTAL-FORCE (eV/Angst)
      0.00000      0.00000      0.00000         0.000000      0.000000      0.432982
      0.00000      2.56680      0.00000         0.000000      0.000000      0.432982
      0.00000      5.13360      0.00000         0.000000      0.000000      0.432982
      3.63000      0.00000      0.00000        -0.000000      0.000000      0.432982
      3.63000      2.56680      0.00000        -0.000000     -0.000000      0.432982
      3.63000      5.13360      0.00000         0.000000      0.000000      0.432982
      7.26000      0.00000      0.00000         0.000000      0.000000      0.432982
      7.26000      2.56680      0.00000        -0.000000      0.000000      0.432982
      7.26000      5.13360      0.00000         0.000000      0.000000      0.432982
      1.81500      1.28340      1.28340        -0.000000      0.000000     -0.444169
      1.81500      3.85020      1.28340        -0.000000      0.000000     -0.444169
      1.81500      6.41699      1.28340        -0.000000     -0.000000     -0.444169
      5.44500      1.28340      1.28340        -0.000000      0.000000     -0.444169
      5.44500      3.85020      1.28340         0.000000      0.000000     -0.444169
      5.44500      6.41699      1.28340        -0.000000     -0.000000     -0.444169
      9.07500      1.28340      1.28340         0.000000      0.000000     -0.444169
      9.07500      3.85020      1.28340         0.000000      0.000000     -0.444169
      9.07500      6.41699      1.28340         0.000000      0.000000     -0.444169
     -0.00000      0.00000      2.52148         0.000000      0.000000     -0.007626
     -0.00000      2.56680      2.52148        -0.000000      0.000000     -0.007626
      0.00000      5.13360      2.52148         0.000000      0.000000     -0.007626
      3.63000      0.00000      2.52148         0.000000      0.000000     -0.007626
      3.63000      2.56680      2.52148        -0.000000     -0.000000     -0.007626
      3.63000      5.13360      2.52148        -0.000000      0.000000     -0.007626
      7.26000      0.00000      2.52148        -0.000000      0.000000     -0.007626
      7.26000      2.56680      2.52148        -0.000000     -0.000000     -0.007626
      7.26000      5.13360      2.52148         0.000000      0.000000     -0.007626
      1.81500      1.28340      3.78174         0.000000      0.000000     -0.003825
      1.81500      3.85020      3.78174        -0.000000      0.000000     -0.003825
      1.81500      6.41699      3.78174         0.000000     -0.000000     -0.003825
      5.44500      1.28340      3.78174         0.000000      0.000000     -0.003825
      5.44500      3.85020      3.78174         0.000000      0.000000     -0.003825
      5.44500      6.41699      3.78174        -0.000000     -0.000000     -0.003825
      9.07500      1.28340      3.78174         0.000000      0.000000     -0.003825
      9.07500      3.85020      3.78174         0.000000      0.000000     -0.003825
      9.07500      6.41699      3.78174         0.000000      0.000000     -0.003825
     -0.00000      0.00000      5.00971         0.000000      0.000000      0.014426
      0.00000      2.56680      5.00971         0.000000     -0.000000      0.014426
     -0.00000      5.13360      5.00971         0.000000      0.000000      0.014426
      3.63000      0.00000      5.00971         0.000000      0.000000      0.014426
      3.63000      2.56680      5.00971         0.000000      0.000000      0.014426
      3.63000      5.13360      5.00971        -0.000000      0.000000      0.014426
      7.26000      0.00000      5.00971        -0.000000      0.000000      0.014426
      7.26000      2.56680      5.00971        -0.000000      0.000000      0.014426
      7.26000      5.13360      5.00971         0.000000      0.000000      0.014426
      1.81500      1.28340      6.31683        -0.000000      0.000000      0.005571
      1.81500      3.85020      6.31683         0.000000      0.000000      0.005571
      1.81500      6.41699      6.31683        -0.000000      0.000000      0.005571
      5.44500      1.28340      6.31683         0.000000      0.000000      0.005571
      5.44500      3.85020      6.31683         0.000000      0.000000      0.005571
      5.44500      6.41699      6.31683        -0.000000     -0.000000      0.005571
      9.07500      1.28340      6.31683         0.000000      0.000000      0.005571
      9.07500      3.85020      6.31683         0.000000      0.000000      0.005571
      9.07500      6.41699      6.31683        -0.000000     -0.000000      0.005571
     -0.00000      0.00000      7.46473         0.000000      0.000000      0.002641
      0.00000      2.56680      7.46473         0.000000      0.000000      0.002641
     -0.00000      5.13360      7.46473        -0.000000      0.000000      0.002641
      3.63000      0.00000      7.46473        -0.000000      0.000000      0.002641
      3.63000      2.56680      7.46473        -0.000000      0.000000      0.002641
      3.63000      5.13360      7.46473        -0.000000      0.000000      0.002641
      7.26000      0.00000      7.46473         0.000000      0.000000      0.002641
      7.26000      2.56680      7.46473         0.000000     -0.000000      0.002641
      7.26000      5.13360      7.46473         0.000000      0.000000      0.002641
    total drift:                                0.000046     -0.000044     -0.019768

  FREE ENERGIE OF THE ION-ELECTRON SYSTEM (eV)
  free  energy   TOTEN  =      -241.46177207 eV

  energy  without entropy=     -241.43830285  energy(sigma->0) =     -241.45394900

 d Force = 0.1659782E-02[-0.209E-03, 0.353E-02]  d Energy = 0.2093086E-02-0.433E-03
 d Force = 0.1839840E+03[ 0.184E+03, 0.184E+03]  d Ewald  = 0.1839840E+03 0.723E-05

 stress matrix after NEB project (eV)
    -32.44201      0.00000      0.00000
      0.00000    -41.21356      0.00000
      0.00000      0.00000     -7.26309
  FORCES: max atom, RMS     0.014426    0.006750
  FORCE total and by dimension    0.053573    0.014426
  Stress total and by dimension   52.950867   41.213561
 Conjugate gradient step on ions:
 trial-energy change:   -0.002093  1 .order   -0.001660   -0.003529    0.000209
  (g-gl).g = 0.277E-03      g.g   = 0.147E-02  gl.gl    = 0.193E-01
 g(Force)  = 0.147E-02   g(Stress)= 0.000E+00 ortho     = 0.267E-03
 gamma     =   0.01432
 trial     =   2.38663
 opt step  =   2.25298  (harmonic =   2.25298) maximal distance =0.00404359
 next E    =  -241.461345   (d E  =  -0.00167)

 reached required accuracy - stopping structural energy minimisation