 vasp.6.3.2 27Jun22 (build Aug 17 2022 15:43:34) complex

 executed on           tv2STDVTST date 2025.01.17  13:54:46

 INCAR:
   ISTART = 0
   ICHARG = 2
   IPIPOL = 3
   IVDW = 11
   IDIPOL = 3
   IVDW = 11
   ISPIN = 2
   ENCUT = 400
   PREC = Normal
   EDIFF = 2E-04
   GGA = PE
   ISMEAR = 1
   SIGMA = 0.2
   LREAL = .FALSE.
   ISYM = 1
   NSW = 800
   IBRION = 2
   POTIM = 0.5
   ISIF = 2
   EDIFFG = -.03
   NPAR = 4
   LWAVE = .FALSE.
   LCHARG = .FALSE.

 POTCAR:    PAW_PBE Cu 22Jun2005
|           W    W    AA    RRRRR   N    N  II  N    N   GGGG   !!!           |
|           W    W   A  A   R    R  NN   N  II  NN   N  G    G  !!!           |
|           W    W  A    A  R    R  N N  N  II  N N  N  G       !!!           |
|           W WW W  AAAAAA  RRRRR   N  N N  II  N  N N  G  GGG   !            |
|           WW  WW  A    A  R   R   N   NN  II  N   NN  G    G                |
|           W    W  A    A  R    R  N    N  II  N    N   GGGG   !!!           |
|     You use a magnetic or noncollinear calculation, but did not specify     |
|     the initial magnetic moment with the MAGMOM tag. Note that a            |
|     default of 1 will be used for all atoms. This ferromagnetic setup       |
|     may break the symmetry of the crystal, in particular it may rule        |
|     out finding an antiferromagnetic solution. Thence, we recommend         |
|     setting the initial magnetic moment manually or verifying carefully     |
|     that this magnetic setup is desired.                                    |

   TITEL  = PAW_PBE Cu 22Jun2005
   POMASS =   63.546; ZVAL   =   11.000    mass and valenz
   ENMAX  =  295.446; ENMIN  =  221.585 eV

  PAW_PBE Cu 22Jun2005                  :

 POSCAR: FCC Cu
  positions in cartesian coordinates
  velocities in cartesian coordinates
 exchange correlation table for  LEXCH =        8
   RHO(1)=    0.500       N(1)  =     2000
   RHO(2)=  100.500       N(2)  =     4000

 VTST: version 4.2, (08/11/21)

 CHAIN: initializing optimizer

 OPT: Using VASP Conjugate-Gradient optimizer
 CHAIN: Read ICHAIN            0

 POSCAR: FCC Cu
  positions in cartesian coordinates
  velocities in cartesian coordinates

 ion  position               nearest neighbor table
   1  0.000  0.000  0.000-   7 2.57   5 2.57   6 2.57   4 2.57   3 2.57   2 2.57   2 2.57   3 2.57
                             4 2.57
   2  0.000  0.500  0.000-   5 2.57   8 2.57   6 2.57   3 2.57   4 2.57   1 2.57   1 2.57   4 2.57
                             3 2.57
   3  0.500  0.000  0.000-   5 2.57   7 2.57   8 2.57   2 2.57   1 2.57   4 2.57   4 2.57   1 2.57
                             2 2.57
   4  0.500  0.500  0.000-   6 2.57   7 2.57   8 2.57   1 2.57   2 2.57   3 2.57   3 2.57   2 2.57
                             1 2.57
   5  0.167  0.167  0.090-   3 2.57   2 2.57   1 2.57   9 2.57  10 2.57  11 2.57   8 2.57   7 2.57
                             6 2.57   6 2.57   7 2.57   8 2.57
   6  0.167  0.667  0.090-   4 2.57   2 2.57   1 2.57  10 2.57   9 2.57  12 2.57   7 2.57   8 2.57
                             5 2.57   5 2.57   8 2.57   7 2.57
   7  0.667  0.167  0.090-   4 2.57   1 2.57   3 2.57  11 2.57   9 2.57  12 2.57   6 2.57   5 2.57
                             8 2.57   8 2.57   5 2.57   6 2.57
   8  0.667  0.667  0.090-   2 2.57   4 2.57   3 2.57  12 2.57  11 2.57  10 2.57   5 2.57   6 2.57
                             7 2.57   7 2.57   6 2.57   5 2.57
   9  0.333  0.333  0.179-   5 2.57  14 2.57   6 2.57  15 2.57   7 2.57  16 2.57  12 2.57  11 2.57
                            10 2.57  10 2.57  11 2.57  12 2.57
  10  0.333  0.833  0.179-   6 2.57  16 2.57  15 2.57   8 2.57  13 2.57   5 2.57  11 2.57  12 2.57
                             9 2.57   9 2.57  12 2.57  11 2.57
  11  0.833  0.333  0.179-   7 2.57  16 2.57  13 2.57   8 2.57  14 2.57   5 2.57  10 2.57   9 2.57
                            12 2.57  12 2.57   9 2.57  10 2.57
  12  0.833  0.833  0.179-   8 2.57  14 2.57  15 2.57   7 2.57  13 2.57   6 2.57   9 2.57  10 2.57
                            11 2.57  11 2.57  10 2.57   9 2.57
  13  0.000  0.000  0.269-  11 2.57  19 2.57  17 2.57  10 2.57  18 2.57  12 2.57  16 2.57  15 2.57
                            14 2.57  14 2.57  15 2.57  16 2.57
  14  0.000  0.500  0.269-   9 2.57  17 2.57  12 2.57  20 2.57  18 2.57  11 2.57  15 2.57  16 2.57
                            13 2.57  13 2.57  16 2.57  15 2.57
  15  0.500  0.000  0.269-  17 2.57   9 2.57  10 2.57  19 2.57  12 2.57  20 2.57  14 2.57  13 2.57
                            16 2.57  16 2.57  13 2.57  14 2.57
  16  0.500  0.500  0.269-  18 2.57  11 2.57  19 2.57  10 2.57  20 2.57   9 2.57  13 2.57  14 2.57
                            15 2.57  15 2.57  14 2.57  13 2.57
  17  0.167  0.167  0.359-  15 2.57  14 2.57  13 2.57  20 2.57  19 2.57  18 2.57  18 2.57  19 2.57
                            20 2.57
  18  0.167  0.667  0.359-  16 2.57  14 2.57  13 2.57  19 2.57  20 2.57  17 2.57  17 2.57  20 2.57
                            19 2.57
  19  0.667  0.167  0.359-  16 2.57  13 2.57  15 2.57  18 2.57  17 2.57  20 2.57  20 2.57  17 2.57
                            18 2.57
  20  0.667  0.667  0.359-  14 2.57  16 2.57  15 2.57  17 2.57  18 2.57  19 2.57  19 2.57  18 2.57
                            17 2.57

  LATTYP: Found a hexagonal cell.
 ALAT       =     5.1335954666
 C/A-ratio  =     4.5549216835

  Lattice vectors:

 A1 = (  -2.5667977333,  -4.4458240868,   0.0000000000)
 A2 = (   5.1335954666,   0.0000000000,   0.0000000000)
 A3 = (   0.0000000000,   0.0000000000,  23.3831253052)

Analysis of symmetry for initial positions (statically):
 Subroutine PRICEL returns following result:

[...]

   4 primitive cells build up your supercell.

 Routine SETGRP: Setting up the symmetry group for a
 hexagonal supercell.

 Subroutine GETGRP returns: Found 12 space group operations
 (whereof  6 operations were pure point group operations)
 out of a pool of 24 trial point group operations.

The static configuration has the point symmetry C_3v.
 The point group associated with its full space group is D_3d.

Analysis of symmetry for dynamics (positions and initial velocities):
 Subroutine PRICEL returns following result:

[...]

The dynamic configuration has the point symmetry C_3v.
 The point group associated with its full space group is D_3d.

Analysis of constrained symmetry for selective dynamics:
 Subroutine PRICEL returns following result:

[...]

The constrained configuration has the point symmetry C_3v.

Analysis of structural, dynamic, and magnetic symmetry:
 Subroutine PRICEL returns following result:

  LATTYP: Found a hexagonal cell.
 ALAT       =     2.5667977331
 C/A-ratio  =     9.1098433677

  Lattice vectors:

 A1 = (  -1.2833988670,  -2.2229120430,   0.0000000000)
 A2 = (   2.5667977330,   0.0000000000,   0.0000000000)
 A3 = (   0.0000000000,   0.0000000000,  23.3831253052)

   4 primitive cells build up your supercell.

 Routine SETGRP: Setting up the symmetry group for a
 hexagonal supercell.

 Subroutine GETGRP returns: Found  6 space group operations
 (whereof  6 operations were pure point group operations)
 out of a pool of 24 trial point group operations.

The overall configuration has the point symmetry C_3v.

 Subroutine INISYM returns: Found  6 space group operations
 (whereof  6 operations are pure point group operations),
 and found     4 'primitive' translations

                                     Primitive cell

  volume of cell :     133.4186

  direct lattice vectors                    reciprocal lattice vectors
    -1.283398867 -2.222912043  0.000000000     0.000000000 -0.449860355  0.000000000
     2.566797733  0.000000000  0.000000000     0.389590495 -0.224930177  0.000000000
     0.000000000  0.000000000 23.383125305     0.000000000  0.000000000  0.042765883

  length of vectors
     2.566797733  2.566797733 23.383125305     0.449860355  0.449860355  0.042765883

  position of ions in fractional coordinates (direct lattice)
     0.000000000  0.000000000  0.000000000
     0.666666667  0.333333333  0.089627945
     0.333333333  0.666666667  0.179255889
     0.000000000  0.000000000  0.268883834
     0.666666667  0.333333333  0.358511779

  ion indices of the primitive-cell ions
   primitive index   ion index
                 1           1
                 2           5
                 3          12
                 4          13
                 5          17

 KPOINTS: Auto-mesh

Automatic generation of k-mesh.
 Grid dimensions read from file:
 generate k-points for:    3    3    1

 Generating k-lattice:

  Cartesian coordinates                     Fractional coordinates (reciprocal lattice)
     0.064931749 -0.037488363  0.000000000     0.333333333  0.000000000  0.000000000
     0.000000000  0.074976726  0.000000000     0.000000000  0.333333333  0.000000000
     0.000000000  0.000000000  0.042765883     0.000000000  0.000000000  1.000000000

  Length of vectors
     0.074976726  0.074976726  0.042765883

  Shift w.r.t. Gamma in fractional coordinates (k-lattice)
     0.000000000  0.000000000  0.000000000

 Subroutine IBZKPT returns following result:

 Found      3 irreducible k-points:

 Following reciprocal coordinates:
            Coordinates               Weight
  0.000000  0.000000  0.000000      1.000000
  0.333333 -0.000000  0.000000      6.000000
 -0.333333  0.333333  0.000000      2.000000

 Following cartesian coordinates:
            Coordinates               Weight
  0.000000  0.000000  0.000000      1.000000
  0.064932 -0.037488  0.000000      6.000000
 -0.064932  0.112465  0.000000      2.000000

 SYSTEM =  unknown system
 POSCAR =  FCC Cu

 Startparameter for this run:
   NWRITE =      2    write-flag & timer
   PREC   = normal    normal or accurate (medium, high low for compatibility)
   ISTART =      0    job   : 0-new  1-cont  2-samecut
   ICHARG =      2    charge: 1-file 2-atom 10-const
   ISPIN  =      2    spin polarized calculation?
   LNONCOLLINEAR =      F non collinear calculations
   LSORBIT =      F    spin-orbit coupling
   INIWAV =      1    electr: 0-lowe 1-rand  2-diag
   LASPH  =      F    aspherical Exc in radial PAW
 Electronic Relaxation 1
   ENCUT  =  400.0 eV  29.40 Ry    5.42 a.u.   8.37  8.37 38.13*2*pi/ulx,y,z
   ENINI  =  400.0     initial cutoff
   ENAUG  =  587.0 eV  augmentation charge cutoff
   NELM   =     60;   NELMIN=  2; NELMDL= -5     # of ELM steps
   EDIFF  = 0.2E-03   stopping-criterion for ELM
   LREAL  =      F    real-space projection
   NLSPLINE    = F    spline interpolate recip. space projectors
   LCOMPAT=      F    compatible to vasp.4.4
   GGA_COMPAT  = T    GGA compatible to vasp.4.4-vasp.4.6
   LMAXPAW     = -100 max onsite density
   LMAXMIX     =    2 max onsite mixed and CHGCAR
   VOSKOWN=      0    Vosko Wilk Nusair interpolation
   ROPT   =    0.00000
 Ionic relaxation
   EDIFFG = -.3E-01   stopping-criterion for IOM
   NSW    =    800    number of steps for IOM
   NBLOCK =      1;   KBLOCK =    800    inner block; outer block
   IBRION =      2    ionic relax: 0-MD 1-quasi-New 2-CG
   NFREE  =      1    steps in history (QN), initial steepest desc. (CG)
   ISIF   =      2    stress and relaxation
[...]
  (g-gl).g = 0.375E-01      g.g   = 0.376E-01  gl.gl    = 0.145E-01
 g(Force)  = 0.376E-01   g(Stress)= 0.000E+00 ortho     = 0.167E-03
 gamma     =   2.58391
 trial     =   0.26558
 opt step  =   1.06231  (harmonic =  14.65244) maximal distance =0.00000000
 next E    =   -77.844677   (d E  =  -0.27879)

[...]

 d Force = 0.7700481E-02[-0.345E-02, 0.188E-01]  d Energy = 0.6812751E-02 0.888E-03
 d Force = 0.1000218E+04[ 0.998E+03, 0.100E+04]  d Ewald  = 0.1000219E+04-0.114E-02

[...]

 d Force = 0.1422979E-02[ 0.113E-02, 0.172E-02]  d Energy = 0.1373371E-02 0.496E-04
 d Force =-0.7907655E+02[-0.791E+02,-0.790E+02]  d Ewald  =-0.7907655E+02-0.121E-05

 stress matrix after NEB project (eV)
     -9.63293      0.00000     -0.00000
      0.00000     -9.63293     -0.00000
      0.00000     -0.00000     -2.87792
  FORCES: max atom, RMS     0.040214    0.022476
  FORCE total and by dimension    0.100517    0.040214
  Stress total and by dimension   13.923690    9.632931
 Conjugate gradient step on ions:
 trial-energy change:   -0.001373  1 .order   -0.001423   -0.001716   -0.001129
  (g-gl).g = 0.426E-02      g.g   = 0.151E-02  gl.gl    = 0.376E-01
 g(Force)  = 0.151E-02   g(Stress)= 0.000E+00 ortho     =-0.820E-04
 gamma     =   0.11314
 trial     =   1.14389
 opt step  =   3.34474  (harmonic =   3.34474) maximal distance =0.00000000
 next E    =   -77.662934   (d E  =  -0.00251)

[...]

 eigenvalue-minimisations  :  2816
 total energy-change (2. order) :-0.9405999E-02  (-0.9709450E-02)
 number of electron     220.0000022 magnetization      -0.0000401
 augmentation part      140.2948809 magnetization      -0.0000274

[...]

 Broyden mixing:
  rms(total) = 0.13977E-01    rms(broyden)= 0.13977E-01
  rms(prec ) = 0.14946E-01
  weight for this iteration     100.00

 eigenvalues of (default mixing * dielectric matrix)
  average eigenvalue GAMMA=   0.3797
  0.4995  0.4995  0.1403

[...]

--------------------------------------- Iteration     13(   5)  ---------------------------------------

 eigenvalue-minimisations  :  1680
 total energy-change (2. order) : 0.5014539E-04  (-0.9493107E-04)
 number of electron     220.0000022 magnetization      -0.0000379
 augmentation part      140.2995017 magnetization      -0.0000283

 Free energy of the ion-electron system (eV)
  alpha Z        PSCENC =       548.14535784
  Ewald energy   TEWEN  =    101059.63832231
  -Hartree energ DENC   =   -127771.61446696
  -exchange      EXHF   =         0.00000000
  -V(xc)+E(xc)   XCENC  =       891.46865199
  PAW double counting   =     26211.57029003   -28367.20542631
  entropy T*S    EENTRO =        -0.01653854
  eigenvalues    EBANDS =      -461.12591732
  atomic energy  EATOM  =     27819.15280400
  Solvation  Ediel_sol  =         0.00000000
  free energy    TOTEN  =       -69.98692296 eV

  energy without entropy =      -69.97038442  energy(sigma->0) =      -69.98141011

 average (electrostatic) potential at core
  the test charge radii are     0.9430
  (the norm of the test charge is              1.0000)
       1 -70.3101       2 -70.3101       3 -70.3101       4 -70.3101       5 -70.4308
       6 -70.4308       7 -70.4308       8 -70.4308       9 -70.3971      10 -70.3971
      11 -70.3971      12 -70.3971      13 -70.4466      14 -70.4466      15 -70.4466
      16 -70.4466      17 -70.3217      18 -70.3217      19 -70.3217      20 -70.3217

 E-fermi :   0.8948     XC(G=0):  -6.3843     alpha+bet : -5.9416

 Fermi energy:         0.8948155998

[...]

 k-point     3 :      -0.3333    0.3333    0.0000
  band No.  band energies     occupation
      1      -5.8506      1.00000
      2      -5.8506      1.00000
      3      -5.8506      1.00000
      4      -5.0925      1.00000
      5      -5.0925      1.00000
      6      -5.0925      1.00000
      7      -4.1301      1.00000
      8      -4.1301      1.00000
      9      -4.1301      1.00000
     10      -3.3720      1.00000
     11      -3.3720      1.00000
     12      -3.3720      1.00000
     13      -3.2573      1.00000
     14      -3.2241      1.00000
     15      -3.1901      1.00000
     16      -3.1282      1.00000
     17      -3.1282      1.00000
     18      -3.1282      1.00000
     19      -3.1140      1.00000
     20      -3.1097      1.00000
     21      -3.0670      1.00000
     22      -2.9761      1.00000
     23      -2.9170      1.00000
     24      -2.9170      1.00000
     25      -2.9170      1.00000
     26      -2.8413      1.00000
     27      -2.8272      1.00000
     28      -2.8272      1.00000
     29      -2.8272      1.00000
     30      -2.7695      1.00000
     31      -2.6841      1.00000
     32      -2.6841      1.00000
     33      -2.6841      1.00000
     34      -2.6384      1.00000
     35      -2.6384      1.00000
     36      -2.6384      1.00000
     37      -2.4773      1.00000
     38      -2.4773      1.00000
     39      -2.4773      1.00000
     40      -2.4359      1.00000
     41      -2.3530      1.00000
     42      -2.3530      1.00000
     43      -2.3530      1.00000
     44      -2.3480      1.00000
     45      -2.3480      1.00000
     46      -2.3480      1.00000
     47      -2.3425      1.00000
     48      -2.3240      1.00000
     49      -2.2069      1.00000
     50      -2.2069      1.00000
     51      -2.2069      1.00000
     52      -2.1728      1.00000
     53      -2.1728      1.00000
     54      -2.1728      1.00000
     55      -2.0541      1.00000
     56      -2.0320      1.00000
     57      -2.0003      1.00000
     58      -1.9865      1.00000
     59      -1.8140      1.00000
     60      -1.8140      1.00000
[...]
    130       7.1074      0.00000
    131       7.3781      0.00000
    132       7.8358      0.00000
    133       7.8358      0.00000
    134       7.8358      0.00000
    135       8.2223      0.00000
    136       8.2223      0.00000
    137       8.2223      0.00000
    138       8.4996      0.00000
    139       8.5252      0.00000
    140       9.7556      0.00000
    141       9.7556      0.00000
    142       9.7556      0.00000
    143       9.9498      0.00000
    144       9.9498      0.00000
 Fermi energy:         0.8948155998

 spin component 2

[...]

 k-point     3 :      -0.3333    0.3333    0.0000
  band No.  band energies     occupation
      1      -5.8506      1.00000
      2      -5.8506      1.00000
      3      -5.8506      1.00000
      4      -5.0925      1.00000
      5      -5.0925      1.00000
      6      -5.0925      1.00000
      7      -4.1301      1.00000
      8      -4.1301      1.00000
      9      -4.1301      1.00000
     10      -3.3720      1.00000
     11      -3.3720      1.00000
     12      -3.3720      1.00000
     13      -3.2573      1.00000
     14      -3.2241      1.00000
     15      -3.1901      1.00000
     16      -3.1282      1.00000
     17      -3.1282      1.00000
     18      -3.1282      1.00000
     19      -3.1140      1.00000
     20      -3.1097      1.00000
     21      -3.0670      1.00000
     22      -2.9761      1.00000
     23      -2.9170      1.00000
     24      -2.9170      1.00000
     25      -2.9170      1.00000
     26      -2.8413      1.00000
     27      -2.8272      1.00000
     28      -2.8272      1.00000
     29      -2.8272      1.00000
     30      -2.7695      1.00000
     31      -2.6841      1.00000
     32      -2.6841      1.00000
     33      -2.6841      1.00000
     34      -2.6384      1.00000
     35      -2.6384      1.00000
     36      -2.6384      1.00000
     37      -2.4773      1.00000
     38      -2.4773      1.00000
     39      -2.4773      1.00000
     40      -2.4359      1.00000
     41      -2.3530      1.00000
     42      -2.3530      1.00000
     43      -2.3530      1.00000
     44      -2.3480      1.00000
     45      -2.3480      1.00000
     46      -2.3480      1.00000
     47      -2.3425      1.00000
     48      -2.3240      1.00000
     49      -2.2069      1.00000
     50      -2.2069      1.00000
     51      -2.2069      1.00000
     52      -2.1728      1.00000
     53      -2.1728      1.00000
     54      -2.1728      1.00000
     55      -2.0541      1.00000
     56      -2.0320      1.00000
     57      -2.0003      1.00000
     58      -1.9865      1.00000
     59      -1.8140      1.00000
     60      -1.8140      1.00000
[...]
    130       7.1072      0.00000
    131       7.3781      0.00000
    132       7.8355      0.00000
    133       7.8355      0.00000
    134       7.8355      0.00000
    135       8.2219      0.00000
    136       8.2219      0.00000
    137       8.2219      0.00000
    138       8.4996      0.00000
    139       8.5252      0.00000
    140       9.7554      0.00000
    141       9.7554      0.00000
    142       9.7554      0.00000
    143       9.9494      0.00000
    144       9.9494      0.00000

[...]

 soft charge-density along one line, spin component           2
         0         1         2         3         4         5         6         7         8         9
 total charge-density along one line

------------------------ aborting loop because EDIFF is reached ----------------------------------------

 DIPCOR: dipole corrections for dipol
 direction  3 min pos   171,
 dipolmoment           0.000000      0.000000     -0.003082 electrons x Angstroem
 Tr[quadrupol]     -1060.186754

 energy correction for charged system         0.000000 eV
 dipol+quadrupol energy correction            0.000002 eV
 added-field ion interaction          0.000000 eV  (added to PSCEN)

  *************** adding dipol energy to TOTEN NOW ****************

         DFTD3 V3.0 Rev 1
 Edisp (eV)   -7.67594

 E6    (eV) :    -3.0919
 E8    (eV) :    -4.5841
 % E8        : 59.72

  FORCE on cell =-STRESS in cart. coord.  units (eV):
  Direction    XX          YY          ZZ          XY          YZ          ZX
  Alpha Z   548.14536   548.14536   548.14536
  Ewald  115701.35786115701.35786************    -0.00000     0.00000    -0.00000
  Hartree123190.58760123190.58759************     0.00000    -0.00000    -0.00000
  E(xc)   -1285.04859 -1285.04823 -1287.03439    -0.00032     0.00001     0.00001
  Local  ************************246439.29553     0.01002    -0.00001    -0.00001
  n-local  -420.30366  -431.58348  -430.49035    -9.76823     0.17357    -0.29219
  augment  1893.30806  1893.31910  1896.34532    -0.00956    -0.00002    -0.00004
  Kinetic  1788.32040  1798.53117  1800.53436     8.84312    -1.85376     3.21100
  Fock        0.00000     0.00000     0.00000     0.00000     0.00000     0.00000
  vdW        -9.45385    -9.45385    -6.72179     0.00000     0.00000    -0.00000
  Total      -9.19895    -9.19895    -2.31511    -0.00000     0.00000    -0.00000
  in kB     -27.61673   -27.61673    -6.95033    -0.00000     0.00000    -0.00000

 VOLUME and BASIS-vectors are now :
  energy-cutoff  :      400.00
  volume of cell :      533.67
      direct lattice vectors                 reciprocal lattice vectors
     5.133595467  0.000000000  0.000000000     0.194795248 -0.112465089  0.000000000
     2.566797733  4.445824087  0.000000000     0.000000000  0.224930177  0.000000000
     0.000000000  0.000000000 23.383125305     0.000000000  0.000000000  0.042765883

  length of vectors
     5.133595467  5.133595467 23.383125305     0.224930177  0.224930177  0.042765883

 FORCES acting on ions
    electron-ion (+dipol)            ewald-force                    non-local-force                 convergence-correction
   -.403E-05 -.233E-05 0.430E+04   -.127E-06 -.190E-06 -.430E+04   -.104E-16 0.694E-17 -.216E+01   0.549E-09 0.315E-09 0.258E+00
   -.537E-05 -.803E-06 0.430E+04   -.167E-06 0.344E-06 -.430E+04   -.121E-16 0.347E-17 -.216E+01   0.720E-09 0.140E-09 0.258E+00
   -.289E-05 -.233E-05 0.430E+04   0.182E-06 -.349E-06 -.430E+04   -.867E-17 0.347E-17 -.216E+01   0.413E-09 0.304E-09 0.258E+00
   -.422E-05 -.803E-06 0.430E+04   0.142E-06 0.185E-06 -.430E+04   -.694E-17 0.347E-17 -.216E+01   0.589E-09 0.132E-09 0.258E+00
   0.486E-05 0.407E-05 0.220E+04   -.187E-06 -.213E-06 -.220E+04   0.607E-17 -.867E-18 -.176E+01   -.765E-07 -.440E-07 0.180E+00
   0.355E-05 0.558E-05 0.220E+04   -.214E-06 0.402E-06 -.220E+04   0.520E-17 -.867E-18 -.176E+01   -.768E-07 -.443E-07 0.180E+00
   0.600E-05 0.407E-05 0.220E+04   0.165E-06 -.403E-06 -.220E+04   -.867E-18 -.173E-17 -.176E+01   -.766E-07 -.438E-07 0.180E+00
   0.468E-05 0.558E-05 0.220E+04   0.138E-06 0.212E-06 -.220E+04   0.867E-18 -.347E-17 -.176E+01   -.769E-07 -.441E-07 0.180E+00
   -.507E-05 -.257E-05 0.102E+02   -.858E-07 -.169E-06 -.961E+01   -.434E-18 0.379E-18 0.183E+00   -.382E-05 -.221E-05 -.787E+00
   -.638E-05 -.107E-05 0.102E+02   -.156E-06 0.324E-06 -.961E+01   -.108E-18 0.163E-18 0.183E+00   -.382E-05 -.221E-05 -.787E+00
   -.394E-05 -.257E-05 0.102E+02   0.207E-06 -.303E-06 -.961E+01   -.325E-18 0.108E-18 0.183E+00   -.382E-05 -.221E-05 -.787E+00
   -.525E-05 -.107E-05 0.102E+02   0.137E-06 0.190E-06 -.961E+01   -.163E-18 0.325E-18 0.183E+00   -.382E-05 -.221E-05 -.787E+00
   0.190E-05 0.109E-05 -.218E+04   -.110E-06 -.190E-06 0.218E+04   -.434E-17 -.781E-17 0.198E+01   -.542E-05 -.313E-05 -.137E+01
   0.578E-06 0.260E-05 -.218E+04   -.181E-06 0.303E-06 0.218E+04   0.173E-17 -.434E-17 0.198E+01   -.542E-05 -.313E-05 -.137E+01
   0.302E-05 0.109E-05 -.218E+04   0.182E-06 -.324E-06 0.218E+04   0.347E-17 0.173E-17 0.198E+01   -.542E-05 -.313E-05 -.137E+01
   0.171E-05 0.260E-05 -.218E+04   0.111E-06 0.169E-06 0.218E+04   0.260E-17 0.000E+00 0.198E+01   -.542E-05 -.313E-05 -.137E+01
   0.552E-05 0.447E-05 -.433E+04   -.147E-06 -.189E-06 0.433E+04   0.139E-16 -.520E-17 0.248E+01   -.132E-05 -.762E-06 -.494E+00
   0.419E-05 0.599E-05 -.433E+04   -.186E-06 0.358E-06 0.433E+04   0.139E-16 -.867E-17 0.248E+01   -.132E-05 -.762E-06 -.494E+00
   0.666E-05 0.447E-05 -.433E+04   0.169E-06 -.352E-06 0.433E+04   0.867E-17 -.173E-17 0.248E+01   -.132E-05 -.763E-06 -.494E+00
   0.533E-05 0.599E-05 -.433E+04   0.130E-06 0.195E-06 0.433E+04   0.347E-17 -.867E-17 0.248E+01   -.132E-05 -.762E-06 -.494E+00
   0.108E-04 0.341E-04 0.581E+01   -.317E-13 -.423E-13 0.909E-12   0.154E-16 -.233E-16 0.291E+01   -.425E-04 -.246E-04 -.885E+01

 POSITION                                       TOTAL-FORCE (eV/Angst)
      0.00000      0.00000      0.00000        -0.000000     -0.000000      0.198917
      1.28340      2.22291      0.00000        -0.000000      0.000000      0.198917
      2.56680      0.00000      0.00000        -0.000000      0.000000      0.198917
      3.85020      2.22291      0.00000        -0.000000     -0.000000      0.198917
      1.28340      0.74097      2.09578        -0.000000     -0.000000     -0.192119
      2.56680      2.96388      2.09578         0.000000      0.000000     -0.192119
      3.85020      0.74097      2.09578         0.000000     -0.000000     -0.192119
      5.13360      2.96388      2.09578         0.000000      0.000000     -0.192119
      2.56680      1.48194      4.10413        -0.000000     -0.000000     -0.015790
      3.85020      3.70485      4.10413        -0.000000     -0.000000     -0.015790
      5.13360      1.48194      4.10413        -0.000000      0.000000     -0.015790
      6.41699      3.70485      4.10413        -0.000000      0.000000     -0.015790
      0.00000     -0.00000      6.10889        -0.000000      0.000000      0.016672
      1.28340      2.22291      6.10889         0.000000      0.000000      0.016672
      2.56680     -0.00000      6.10889        -0.000000     -0.000000      0.016672
      3.85020      2.22291      6.10889        -0.000000      0.000000      0.016672
      1.28340      0.74097      8.15204         0.000000     -0.000000     -0.007680
      2.56680      2.96388      8.15204         0.000000      0.000000     -0.007680
      3.85020      0.74097      8.15204         0.000000     -0.000000     -0.007680
      5.13360      2.96388      8.15204         0.000000     -0.000000     -0.007680
    total drift:                               -0.000032      0.000009     -0.125248

  FREE ENERGIE OF THE ION-ELECTRON SYSTEM (eV)
  free  energy   TOTEN  =       -77.66286622 eV

  energy  without entropy=      -77.64632768  energy(sigma->0) =      -77.65735337

 d Force = 0.9585954E-03[-0.256E-03, 0.217E-02]  d Energy = 0.1068769E-02-0.110E-03
 d Force =-0.1523658E+03[-0.153E+03,-0.152E+03]  d Ewald  =-0.1523658E+03-0.782E-05

 stress matrix after NEB project (eV)
     -9.19895     -0.00000     -0.00000
     -0.00000     -9.19895      0.00000
     -0.00000      0.00000     -2.31511
  FORCES: max atom, RMS     0.016672    0.010828
  FORCE total and by dimension    0.048426    0.016672
  Stress total and by dimension   13.213668    9.198949

 reached required accuracy - stopping structural energy minimisation