 vasp.6.3.2 27Jun22 (build Aug 17 2022 15:43:34) complex

 executed on           tv2STDVTST date 2025.01.17  14:08:43

 INCAR:
   ISTART = 0
   ICHARG = 2
   IPIPOL = 3
   IVDW = 11
   IDIPOL = 3
   IVDW = 11
   ISPIN = 2
   ENCUT = 400
   PREC = Normal
   EDIFF = 2E-04
   GGA = PE
   ISMEAR = 1
   SIGMA = 0.2
   LREAL = .FALSE.
   ISYM = 1
   NSW = 800
   IBRION = 2
   POTIM = 0.5
   ISIF = 2
   EDIFFG = -.03
   NPAR = 4
   LWAVE = .FALSE.
   LCHARG = .FALSE.

 POTCAR:    PAW_PBE Cu 22Jun2005
|           W    W    AA    RRRRR   N    N  II  N    N   GGGG   !!!           |
|           W    W   A  A   R    R  NN   N  II  NN   N  G    G  !!!           |
|           W    W  A    A  R    R  N N  N  II  N N  N  G       !!!           |
|           W WW W  AAAAAA  RRRRR   N  N N  II  N  N N  G  GGG   !            |
|           WW  WW  A    A  R   R   N   NN  II  N   NN  G    G                |
|           W    W  A    A  R    R  N    N  II  N    N   GGGG   !!!           |
|     You use a magnetic or noncollinear calculation, but did not specify     |
|     the initial magnetic moment with the MAGMOM tag. Note that a            |
|     default of 1 will be used for all atoms. This ferromagnetic setup       |
|     may break the symmetry of the crystal, in particular it may rule        |
|     out finding an antiferromagnetic solution. Thence, we recommend         |
|     setting the initial magnetic moment manually or verifying carefully     |
|     that this magnetic setup is desired.                                    |

   TITEL  = PAW_PBE Cu 22Jun2005
   POMASS =   63.546; ZVAL   =   11.000    mass and valenz
   ENMAX  =  295.446; ENMIN  =  221.585 eV

  PAW_PBE Cu 22Jun2005                  :

 POSCAR: FCC Cu
  positions in cartesian coordinates
 exchange correlation table for  LEXCH =        8
   RHO(1)=    0.500       N(1)  =     2000
   RHO(2)=  100.500       N(2)  =     4000

 VTST: version 4.2, (08/11/21)

 CHAIN: initializing optimizer

 OPT: Using VASP Conjugate-Gradient optimizer
 CHAIN: Read ICHAIN            0

 POSCAR: FCC Cu
  positions in cartesian coordinates

 ion  position               nearest neighbor table
   1  0.000  0.000  0.000-   4 2.57   3 2.57   2 2.57   2 2.57   3 2.57   4 2.57   7 2.57   5 2.57
                             6 2.57
   2  0.000  0.500  0.000-   3 2.57   4 2.57   1 2.57   1 2.57   4 2.57   3 2.57   5 2.57   8 2.57
                             6 2.57
   3  0.500  0.000  0.000-   2 2.57   1 2.57   4 2.57   4 2.57   1 2.57   2 2.57   5 2.57   7 2.57
                             8 2.57
   4  0.500  0.500  0.000-   1 2.57   2 2.57   3 2.57   3 2.57   2 2.57   1 2.57   6 2.57   7 2.57
                             8 2.57
   5  0.167  0.167  0.076-   8 2.57   7 2.57   6 2.57   6 2.57   7 2.57   8 2.57   3 2.57   2 2.57
                             1 2.57   9 2.57  10 2.57  11 2.57
   6  0.167  0.667  0.076-   7 2.57   8 2.57   5 2.57   5 2.57   8 2.57   7 2.57   4 2.57   2 2.57
                             1 2.57  10 2.57   9 2.57  12 2.57
   7  0.667  0.167  0.076-   6 2.57   5 2.57   8 2.57   8 2.57   5 2.57   6 2.57   4 2.57   1 2.57
                             3 2.57  11 2.57   9 2.57  12 2.57
   8  0.667  0.667  0.076-   5 2.57   6 2.57   7 2.57   7 2.57   6 2.57   5 2.57   2 2.57   4 2.57
                             3 2.57  12 2.57  11 2.57  10 2.57
   9  0.333  0.333  0.152-  12 2.57  11 2.57  10 2.57  10 2.57  11 2.57  12 2.57   5 2.57  14 2.57
                             6 2.57  15 2.57   7 2.57  16 2.57
  10  0.333  0.833  0.152-  11 2.57  12 2.57   9 2.57   9 2.57  12 2.57  11 2.57   6 2.57  16 2.57
                            15 2.57   8 2.57  13 2.57   5 2.57
  11  0.833  0.333  0.152-  10 2.57   9 2.57  12 2.57  12 2.57   9 2.57  10 2.57   7 2.57  16 2.57
                             8 2.57  13 2.57   5 2.57  14 2.57
  12  0.833  0.833  0.152-   9 2.57  10 2.57  11 2.57  11 2.57  10 2.57   9 2.57   8 2.57  14 2.57
                            15 2.57   7 2.57  13 2.57   6 2.57
  13  0.000  0.000  0.228-  16 2.57  15 2.57  14 2.57  14 2.57  15 2.57  16 2.57  19 2.57  17 2.57
                            18 2.57  11 2.57  10 2.57  12 2.57
  14  0.000  0.500  0.228-  15 2.57  16 2.57  13 2.57  13 2.57  16 2.57  15 2.57  17 2.57  20 2.57
                            18 2.57   9 2.57  12 2.57  11 2.57
  15  0.500  0.000  0.228-  14 2.57  13 2.57  16 2.57  16 2.57  13 2.57  14 2.57  17 2.57  19 2.57
                            20 2.57   9 2.57  10 2.57  12 2.57
  16  0.500  0.500  0.228-  13 2.57  14 2.57  15 2.57  15 2.57  14 2.57  13 2.57  18 2.57  19 2.57
                            20 2.57  11 2.57  10 2.57   9 2.57
  17  0.167  0.167  0.304-  20 2.57  19 2.57  18 2.57  18 2.57  19 2.57  20 2.57  21 2.57  22 2.57
                            23 2.57  15 2.57  14 2.57  13 2.57
  18  0.167  0.667  0.304-  19 2.57  20 2.57  17 2.57  17 2.57  20 2.57  19 2.57  22 2.57  21 2.57
                            24 2.57  16 2.57  14 2.57  13 2.57
  19  0.667  0.167  0.304-  18 2.57  17 2.57  20 2.57  20 2.57  17 2.57  18 2.57  23 2.57  21 2.57
                            24 2.57  16 2.57  13 2.57  15 2.57
  20  0.667  0.667  0.304-  17 2.57  18 2.57  19 2.57  19 2.57  18 2.57  17 2.57  24 2.57  23 2.57
                            22 2.57  14 2.57  16 2.57  15 2.57
  21  0.333  0.333  0.380-  24 2.57  23 2.57  22 2.57  22 2.57  23 2.57  24 2.57  17 2.57  18 2.57
                            19 2.57  26 2.57  27 2.57  28 2.57
  22  0.333  0.833  0.380-  23 2.57  24 2.57  21 2.57  21 2.57  24 2.57  23 2.57  18 2.57  20 2.57
                            17 2.57  28 2.57  27 2.57  25 2.57
  23  0.833  0.333  0.380-  22 2.57  21 2.57  24 2.57  24 2.57  21 2.57  22 2.57  19 2.57  20 2.57
                            17 2.57  28 2.57  25 2.57  26 2.57
  24  0.833  0.833  0.380-  21 2.57  22 2.57  23 2.57  23 2.57  22 2.57  21 2.57  20 2.57  19 2.57
                            18 2.57  26 2.57  27 2.57  25 2.57
  25  0.000  0.000  0.456-  28 2.57  27 2.57  26 2.57  26 2.57  27 2.57  28 2.57  23 2.57  22 2.57
                            24 2.57
  26  0.000  0.500  0.456-  27 2.57  28 2.57  25 2.57  25 2.57  28 2.57  27 2.57  21 2.57  24 2.57
                            23 2.57
  27  0.500  0.000  0.456-  26 2.57  25 2.57  28 2.57  28 2.57  25 2.57  26 2.57  21 2.57  22 2.57
                            24 2.57
  28  0.500  0.500  0.456-  25 2.57  26 2.57  27 2.57  27 2.57  26 2.57  25 2.57  23 2.57  22 2.57
                            21 2.57

  LATTYP: Found a hexagonal cell.
 ALAT       =     5.1335954666
 C/A-ratio  =     5.3714185398

  Lattice vectors:

 A1 = (  -2.5667977333,  -4.4458240868,   0.0000000000)
 A2 = (   5.1335954666,   0.0000000000,   0.0000000000)
 A3 = (   0.0000000000,   0.0000000000,  27.5746898651)

Analysis of symmetry for initial positions (statically):
 Subroutine PRICEL returns following result:

[...]

   4 primitive cells build up your supercell.

 Routine SETGRP: Setting up the symmetry group for a
 hexagonal supercell.

 Subroutine GETGRP returns: Found 12 space group operations
 (whereof  6 operations were pure point group operations)
 out of a pool of 24 trial point group operations.

The static configuration has the point symmetry C_3v.
 The point group associated with its full space group is D_3d.

Analysis of symmetry for dynamics (positions and initial velocities):
 Subroutine PRICEL returns following result:

[...]

The dynamic configuration has the point symmetry C_3v.
 The point group associated with its full space group is D_3d.

Analysis of constrained symmetry for selective dynamics:
 Subroutine PRICEL returns following result:

[...]

The constrained configuration has the point symmetry C_3v.

Analysis of structural, dynamic, and magnetic symmetry:
 Subroutine PRICEL returns following result:

  LATTYP: Found a hexagonal cell.
 ALAT       =     2.5667977331
 C/A-ratio  =    10.7428370804

  Lattice vectors:

 A1 = (  -1.2833988670,  -2.2229120430,   0.0000000000)
 A2 = (   2.5667977330,   0.0000000000,   0.0000000000)
 A3 = (   0.0000000000,   0.0000000000,  27.5746898651)

   4 primitive cells build up your supercell.

 Routine SETGRP: Setting up the symmetry group for a
 hexagonal supercell.

 Subroutine GETGRP returns: Found  6 space group operations
 (whereof  6 operations were pure point group operations)
 out of a pool of 24 trial point group operations.

The overall configuration has the point symmetry C_3v.

 Subroutine INISYM returns: Found  6 space group operations
 (whereof  6 operations are pure point group operations),
 and found     4 'primitive' translations

                                     Primitive cell

  volume of cell :     157.3347

  direct lattice vectors                    reciprocal lattice vectors
    -1.283398867 -2.222912043  0.000000000     0.000000000 -0.449860355  0.000000000
     2.566797733  0.000000000  0.000000000     0.389590495 -0.224930177  0.000000000
     0.000000000  0.000000000 27.574689865     0.000000000  0.000000000  0.036265140

  length of vectors
     2.566797733  2.566797733 27.574689865     0.449860355  0.449860355  0.036265140

  position of ions in fractional coordinates (direct lattice)
     0.000000000  0.000000000  0.000000000
     0.666666667  0.333333333  0.076003814
     0.333333333  0.666666667  0.152007627
     0.000000000  0.000000000  0.228011441
     0.666666667  0.333333333  0.304015254
     0.333333333  0.666666667  0.380019068
     0.000000000  0.000000000  0.456022881

  ion indices of the primitive-cell ions
   primitive index   ion index
                 1           1
                 2           5
                 3          12
                 4          13
                 5          17
                 6          24
                 7          25

 KPOINTS: Auto-mesh

Automatic generation of k-mesh.
 Grid dimensions read from file:
 generate k-points for:    3    3    1

 Generating k-lattice:

  Cartesian coordinates                     Fractional coordinates (reciprocal lattice)
     0.064931749 -0.037488363  0.000000000     0.333333333  0.000000000  0.000000000
     0.000000000  0.074976726  0.000000000     0.000000000  0.333333333  0.000000000
     0.000000000  0.000000000  0.036265140     0.000000000  0.000000000  1.000000000

  Length of vectors
     0.074976726  0.074976726  0.036265140

  Shift w.r.t. Gamma in fractional coordinates (k-lattice)
     0.000000000  0.000000000  0.000000000

 Subroutine IBZKPT returns following result:

 Found      3 irreducible k-points:

 Following reciprocal coordinates:
            Coordinates               Weight
  0.000000  0.000000  0.000000      1.000000
  0.333333 -0.000000  0.000000      6.000000
 -0.333333  0.333333  0.000000      2.000000

 Following cartesian coordinates:
            Coordinates               Weight
  0.000000  0.000000  0.000000      1.000000
  0.064932 -0.037488  0.000000      6.000000
 -0.064932  0.112465  0.000000      2.000000

 SYSTEM =  unknown system
 POSCAR =  FCC Cu

 Startparameter for this run:
   NWRITE =      2    write-flag & timer
   PREC   = normal    normal or accurate (medium, high low for compatibility)
   ISTART =      0    job   : 0-new  1-cont  2-samecut
[...]
  alpha Z        PSCENC =       911.05318809
  Ewald energy   TEWEN  =    175189.19193579
  -Hartree energ DENC   =   -213003.02671894
  -exchange      EXHF   =         0.00000000
  -V(xc)+E(xc)   XCENC  =      1249.06806379
  PAW double counting   =     36780.28847975   -39799.44156195
  entropy T*S    EENTRO =        -0.01710802
  eigenvalues    EBANDS =      -373.70511086
  atomic energy  EATOM  =     38946.81392559
  Solvation  Ediel_sol  =         0.00000000
  free energy    TOTEN  =       -99.77490675 eV

  energy without entropy =      -99.75779873  energy(sigma->0) =      -99.76920407

 average (electrostatic) potential at core
  the test charge radii are     0.9430
  (the norm of the test charge is              1.0000)
       1 -69.3901       2 -69.3901       3 -69.3901       4 -69.3901       5 -69.5245
       6 -69.5245       7 -69.5245       8 -69.5245       9 -69.5009      10 -69.5009
      11 -69.5009      12 -69.5009      13 -69.5547      14 -69.5547      15 -69.5547
      16 -69.5547      17 -69.5005      18 -69.5005      19 -69.5005      20 -69.5005
      21 -69.5303      22 -69.5303      23 -69.5303      24 -69.5303      25 -69.3973
      26 -69.3973      27 -69.3973      28 -69.3973

 E-fermi :   1.6821     XC(G=0):  -7.3227     alpha+bet : -7.0538

 Fermi energy:         1.6820695728

[...]

 k-point     3 :      -0.3333    0.3333    0.0000
  band No.  band energies     occupation
      1      -5.0644      1.00000
      2      -5.0644      1.00000
      3      -5.0644      1.00000
      4      -4.6432      1.00000
      5      -4.6432      1.00000
      6      -4.6432      1.00000
      7      -4.0153      1.00000
      8      -4.0153      1.00000
      9      -4.0153      1.00000
     10      -3.3099      1.00000
     11      -3.3099      1.00000
     12      -3.3099      1.00000
     13      -2.6979      1.00000
     14      -2.6979      1.00000
     15      -2.6979      1.00000
     16      -2.3535      1.00000
     17      -2.3515      1.00000
     18      -2.3512      1.00000
     19      -2.3512      1.00000
     20      -2.3512      1.00000
     21      -2.3308      1.00000
     22      -2.2592      1.00000
     23      -2.2415      1.00000
     24      -2.2227      1.00000
     25      -2.2091      1.00000
     26      -2.2091      1.00000
     27      -2.2091      1.00000
     28      -2.2022      1.00000
     29      -2.1952      1.00000
     30      -2.1908      1.00000
     31      -2.1199      1.00000
     32      -2.0853      1.00000
     33      -2.0853      1.00000
     34      -2.0853      1.00000
     35      -2.0715      1.00000
     36      -2.0367      1.00000
     37      -2.0367      1.00000
     38      -2.0367      1.00000
     39      -1.9267      1.00000
     40      -1.9267      1.00000
     41      -1.9267      1.00000
     42      -1.9108      1.00000
     43      -1.8628      1.00000
     44      -1.8372      1.00000
     45      -1.8372      1.00000
     46      -1.8372      1.00000
     47      -1.7578      1.00000
     48      -1.7578      1.00000
     49      -1.7578      1.00000
     50      -1.6851      1.00000
     51      -1.6851      1.00000
     52      -1.6851      1.00000
     53      -1.6596      1.00000
     54      -1.6596      1.00000
     55      -1.6596      1.00000
     56      -1.5467      1.00000
     57      -1.5463      1.00000
     58      -1.5133      1.00000
     59      -1.5133      1.00000
     60      -1.5133      1.00000
[...]
    186       9.0833      0.00000
    187       9.0833      0.00000
    188       9.3349      0.00000
    189       9.6222      0.00000
    190      10.2998      0.00000
    191      10.2998      0.00000
    192      10.2998      0.00000
    193      10.5038      0.00000
    194      10.5038      0.00000
    195      10.5038      0.00000
    196      10.8808      0.00000
    197      10.9046      0.00000
    198      11.6219      0.00000
    199      12.2295      0.00000
    200      12.2482      0.00000
 Fermi energy:         1.6820695728

 spin component 2

[...]

 k-point     3 :      -0.3333    0.3333    0.0000
  band No.  band energies     occupation
      1      -5.0644      1.00000
      2      -5.0644      1.00000
      3      -5.0644      1.00000
      4      -4.6432      1.00000
      5      -4.6432      1.00000
      6      -4.6432      1.00000
      7      -4.0153      1.00000
      8      -4.0153      1.00000
      9      -4.0153      1.00000
     10      -3.3099      1.00000
     11      -3.3099      1.00000
     12      -3.3099      1.00000
     13      -2.6979      1.00000
     14      -2.6979      1.00000
     15      -2.6979      1.00000
     16      -2.3535      1.00000
     17      -2.3515      1.00000
     18      -2.3512      1.00000
     19      -2.3512      1.00000
     20      -2.3512      1.00000
     21      -2.3308      1.00000
     22      -2.2592      1.00000
     23      -2.2415      1.00000
     24      -2.2227      1.00000
     25      -2.2091      1.00000
     26      -2.2091      1.00000
     27      -2.2091      1.00000
     28      -2.2022      1.00000
     29      -2.1952      1.00000
     30      -2.1908      1.00000
     31      -2.1199      1.00000
     32      -2.0853      1.00000
     33      -2.0853      1.00000
     34      -2.0853      1.00000
     35      -2.0715      1.00000
     36      -2.0367      1.00000
     37      -2.0367      1.00000
     38      -2.0367      1.00000
     39      -1.9267      1.00000
     40      -1.9267      1.00000
     41      -1.9267      1.00000
     42      -1.9108      1.00000
     43      -1.8628      1.00000
     44      -1.8372      1.00000
     45      -1.8372      1.00000
     46      -1.8372      1.00000
     47      -1.7578      1.00000
     48      -1.7578      1.00000
     49      -1.7578      1.00000
     50      -1.6851      1.00000
     51      -1.6851      1.00000
     52      -1.6851      1.00000
     53      -1.6596      1.00000
     54      -1.6596      1.00000
     55      -1.6596      1.00000
     56      -1.5467      1.00000
     57      -1.5463      1.00000
     58      -1.5133      1.00000
     59      -1.5133      1.00000
     60      -1.5133      1.00000
[...]
    186       9.0827      0.00000
    187       9.0827      0.00000
    188       9.3349      0.00000
    189       9.6222      0.00000
    190      10.2993      0.00000
    191      10.2993      0.00000
    192      10.2993      0.00000
    193      10.5034      0.00000
    194      10.5034      0.00000
    195      10.5034      0.00000
    196      10.8808      0.00000
    197      10.9046      0.00000
    198      11.6219      0.00000
    199      12.2295      0.00000
    200      12.2482      0.00000

[...]

 soft charge-density along one line, spin component           2
         0         1         2         3         4         5         6         7         8         9
 total charge-density along one line

------------------------ aborting loop because EDIFF is reached ----------------------------------------

 DIPCOR: dipole corrections for dipol
 direction  3 min pos   205,
 dipolmoment           0.000000      0.000000     -0.001130 electrons x Angstroem
 Tr[quadrupol]     -1509.443895

 energy correction for charged system         0.000000 eV
 dipol+quadrupol energy correction            0.000000 eV
 added-field ion interaction          0.000000 eV  (added to PSCEN)

  *************** adding dipol energy to TOTEN NOW ****************

         DFTD3 V3.0 Rev 1
 Edisp (eV)  -11.73896

 E6    (eV) :    -4.8281
 E8    (eV) :    -6.9109
 % E8        : 58.87

  FORCE on cell =-STRESS in cart. coord.  units (eV):
  Direction    XX          YY          ZZ          XY          YZ          ZX
  Alpha Z   911.05319   911.05319   911.05319
  Ewald  195716.72543195716.72543************     0.00000    -0.00000     0.00000
  Hartree206630.66679206630.66679************     0.00000    -0.00000    -0.00000
  E(xc)   -1799.99950 -1799.99899 -1801.95792    -0.00044     0.00001     0.00001
  Local  ************************412805.93060     0.01400    -0.00000    -0.00000
  n-local  -586.41029  -603.38591  -594.22822   -14.70010     0.57800    -0.99013
  augment  2650.66866  2650.68412  2657.02504    -0.01338    -0.00000    -0.00001
  Kinetic  2506.23259  2517.08848  2523.27321     9.40265    -2.63951     4.57192
  Fock        0.00000     0.00000     0.00000     0.00000     0.00000     0.00000
  vdW       -14.24980   -14.24980   -11.64970     0.00000     0.00000    -0.00000
  Total     -13.47269   -13.47269    -1.56690     0.00000    -0.00000    -0.00000
  in kB     -34.29892   -34.29892    -3.98904     0.00000    -0.00000    -0.00000

 VOLUME and BASIS-vectors are now :
  energy-cutoff  :      400.00
  volume of cell :      629.34
      direct lattice vectors                 reciprocal lattice vectors
     5.133595467  0.000000000  0.000000000     0.194795248 -0.112465089  0.000000000
     2.566797733  4.445824087  0.000000000     0.000000000  0.224930177  0.000000000
     0.000000000  0.000000000 27.574689865     0.000000000  0.000000000  0.036265140

  length of vectors
     5.133595467  5.133595467 27.574689865     0.224930177  0.224930177  0.036265140

 FORCES acting on ions
    electron-ion (+dipol)            ewald-force                    non-local-force                 convergence-correction
   -.422E-05 -.244E-05 0.552E+04   -.127E-06 -.190E-06 -.552E+04   -.173E-17 0.694E-17 -.164E+01   0.121E-07 0.697E-08 -.126E+00
   -.556E-05 -.913E-06 0.552E+04   -.167E-06 0.344E-06 -.552E+04   0.347E-17 0.694E-17 -.164E+01   0.120E-07 0.707E-08 -.126E+00
   -.308E-05 -.244E-05 0.552E+04   0.182E-06 -.349E-06 -.552E+04   -.867E-17 0.104E-16 -.164E+01   0.121E-07 0.697E-08 -.126E+00
   -.441E-05 -.913E-06 0.552E+04   0.142E-06 0.185E-06 -.552E+04   0.694E-17 0.104E-16 -.164E+01   0.121E-07 0.706E-08 -.126E+00
   0.740E-05 0.554E-05 0.374E+04   -.187E-06 -.213E-06 -.374E+04   -.781E-17 -.173E-17 -.173E+01   -.112E-07 -.644E-08 -.322E+00
   0.608E-05 0.705E-05 0.374E+04   -.214E-06 0.402E-06 -.374E+04   0.113E-16 -.173E-17 -.173E+01   -.113E-07 -.662E-08 -.322E+00
   0.853E-05 0.554E-05 0.374E+04   0.165E-06 -.403E-06 -.374E+04   0.434E-17 -.694E-17 -.173E+01   -.113E-07 -.634E-08 -.322E+00
   0.721E-05 0.705E-05 0.374E+04   0.138E-06 0.212E-06 -.374E+04   -.520E-17 -.347E-17 -.173E+01   -.114E-07 -.652E-08 -.322E+00
   -.938E-05 -.507E-05 0.186E+04   -.877E-07 -.169E-06 -.186E+04   0.130E-17 -.434E-18 0.273E+00   -.157E-05 -.908E-06 -.527E+00
   -.107E-04 -.356E-05 0.186E+04   -.156E-06 0.325E-06 -.186E+04   0.000E+00 -.130E-17 0.273E+00   -.157E-05 -.908E-06 -.527E+00
   -.825E-05 -.507E-05 0.186E+04   0.205E-06 -.305E-06 -.186E+04   0.520E-17 -.867E-18 0.273E+00   -.157E-05 -.908E-06 -.527E+00
   -.957E-05 -.356E-05 0.186E+04   0.137E-06 0.190E-06 -.186E+04   0.000E+00 0.867E-18 0.273E+00   -.157E-05 -.908E-06 -.527E+00
   0.120E-05 0.693E-06 0.384E+01   -.110E-06 -.189E-06 -.366E+01   0.122E-18 0.271E-19 0.180E+00   -.261E-05 -.151E-05 -.372E+00
   -.119E-06 0.220E-05 0.384E+01   -.179E-06 0.304E-06 -.366E+01   0.190E-18 -.271E-19 0.180E+00   -.261E-05 -.151E-05 -.372E+00
   0.233E-05 0.693E-06 0.384E+01   0.182E-06 -.324E-06 -.366E+01   0.108E-18 0.136E-19 0.180E+00   -.261E-05 -.151E-05 -.372E+00
   0.101E-05 0.220E-05 0.384E+01   0.113E-06 0.169E-06 -.366E+01   0.678E-19 -.407E-19 0.180E+00   -.261E-05 -.151E-05 -.372E+00
   0.879E-05 0.634E-05 -.186E+04   -.192E-06 -.216E-06 0.186E+04   -.434E-17 0.217E-17 -.121E+00   -.104E-05 -.599E-06 0.150E+00
   0.747E-05 0.784E-05 -.186E+04   -.217E-06 0.409E-06 0.186E+04   -.260E-17 -.434E-18 -.121E+00   -.104E-05 -.598E-06 0.150E+00
   0.992E-05 0.634E-05 -.186E+04   0.165E-06 -.410E-06 0.186E+04   -.173E-17 -.434E-18 -.121E+00   -.104E-05 -.599E-06 0.150E+00
   0.860E-05 0.784E-05 -.186E+04   0.140E-06 0.216E-06 0.186E+04   0.304E-17 0.217E-17 -.121E+00   -.104E-05 -.599E-06 0.150E+00
   -.168E-05 -.617E-06 -.373E+04   -.890E-07 -.169E-06 0.373E+04   0.000E+00 -.173E-17 0.150E+01   0.156E-05 0.903E-06 0.575E+00
   -.300E-05 0.890E-06 -.373E+04   -.155E-06 0.324E-06 0.373E+04   0.173E-17 0.173E-17 0.150E+01   0.156E-05 0.904E-06 0.575E+00
   -.549E-06 -.617E-06 -.373E+04   0.202E-06 -.305E-06 0.373E+04   -.434E-17 0.867E-17 0.150E+01   0.156E-05 0.903E-06 0.575E+00
   -.187E-05 0.890E-06 -.373E+04   0.136E-06 0.188E-06 0.373E+04   -.121E-16 0.867E-17 0.150E+01   0.156E-05 0.904E-06 0.575E+00
   0.533E-05 0.308E-05 -.554E+04   -.955E-07 -.165E-06 0.554E+04   -.226E-16 0.000E+00 0.182E+01   -.575E-06 -.332E-06 0.292E-01
   0.399E-05 0.460E-05 -.554E+04   -.174E-06 0.261E-06 0.554E+04   -.867E-17 0.139E-16 0.182E+01   -.575E-06 -.332E-06 0.292E-01
   0.647E-05 0.308E-05 -.554E+04   0.161E-06 -.274E-06 0.554E+04   -.520E-17 -.347E-17 0.182E+01   -.575E-06 -.332E-06 0.292E-01
   0.514E-05 0.460E-05 -.554E+04   0.820E-07 0.152E-06 0.554E+04   -.278E-16 0.104E-16 0.182E+01   -.575E-06 -.332E-06 0.292E-01
   0.271E-04 0.513E-04 0.112E+01   -.256E-12 -.123E-12 0.173E-10   -.750E-16 0.607E-16 0.117E+01   -.169E-04 -.977E-05 -.237E+01

 POSITION                                       TOTAL-FORCE (eV/Angst)
      0.00000      0.00000      0.00000        -0.000000      0.000000      0.092064
      1.28340      2.22291      0.00000        -0.000000      0.000000      0.092064
      2.56680      0.00000      0.00000        -0.000000      0.000000      0.092064
      3.85020      2.22291      0.00000        -0.000000      0.000000      0.092064
      1.28340      0.74097      2.09578         0.000000     -0.000000     -0.102816
      2.56680      2.96388      2.09578        -0.000000     -0.000000     -0.102816
      3.85020      0.74097      2.09578        -0.000000      0.000000     -0.102816
      5.13360      2.96388      2.09578        -0.000000      0.000000     -0.102816
      2.56680      1.48194      4.10878         0.000000     -0.000000      0.008051
      3.85020      3.70485      4.10878         0.000000      0.000000      0.008051
      5.13360      1.48194      4.10878        -0.000000     -0.000000      0.008051
      6.41699      3.70485      4.10878         0.000000      0.000000      0.008051
     -0.00000     -0.00000      6.13921        -0.000000      0.000000     -0.012980
      1.28340      2.22291      6.13921        -0.000000     -0.000000     -0.012980
      2.56680     -0.00000      6.13921        -0.000000     -0.000000     -0.012980
      3.85020      2.22291      6.13921        -0.000000     -0.000000     -0.012980
      1.28340      0.74097      8.16924         0.000000     -0.000000     -0.001983
      2.56680      2.96388      8.16924         0.000000     -0.000000     -0.001983
      3.85020      0.74097      8.16924         0.000000     -0.000000     -0.001983
      5.13360      2.96388      8.16924         0.000000     -0.000000     -0.001983
      2.56680      1.48194     10.18405         0.000000     -0.000000      0.011576
      3.85020      3.70485     10.18405        -0.000000     -0.000000      0.011576
      5.13360      1.48194     10.18405        -0.000000      0.000000      0.011576
      6.41699      3.70485     10.18405         0.000000     -0.000000      0.011576
      0.00000     -0.00000     12.25094        -0.000000     -0.000000      0.006088
      1.28340      2.22291     12.25094        -0.000000     -0.000000      0.006088
      2.56680     -0.00000     12.25094         0.000000      0.000000      0.006088
      3.85020      2.22291     12.25094        -0.000000      0.000000      0.006088
    total drift:                                0.000010      0.000041     -0.072391

  FREE ENERGIE OF THE ION-ELECTRON SYSTEM (eV)
  free  energy   TOTEN  =      -111.51386288 eV

  energy  without entropy=     -111.49675486  energy(sigma->0) =     -111.50816021

 d Force = 0.1169987E-02[ 0.303E-03, 0.204E-02]  d Energy = 0.9823824E-03 0.188E-03
 d Force = 0.1070988E+02[ 0.106E+02, 0.108E+02]  d Ewald  = 0.1070988E+02 0.108E-05

 stress matrix after NEB project (eV)
    -13.47269      0.00000     -0.00000
      0.00000    -13.47269     -0.00000
     -0.00000     -0.00000     -1.56690
  FORCES: max atom, RMS     0.012980    0.007637
  FORCE total and by dimension    0.040412    0.012980
  Stress total and by dimension   19.117586   13.472693
 Conjugate gradient step on ions:
 trial-energy change:   -0.000982  1 .order   -0.001170   -0.002037   -0.000303
  (g-gl).g = 0.935E-03      g.g   = 0.888E-03  gl.gl    = 0.467E-02
 g(Force)  = 0.888E-03   g(Stress)= 0.000E+00 ortho     = 0.375E-04
 gamma     =   0.20030
 trial     =   2.27577
 opt step  =   2.67347  (harmonic =   2.67347) maximal distance =0.00444648
 next E    =  -111.514077   (d E  =  -0.00120)

 reached required accuracy - stopping structural energy minimisation