 vasp.6.3.2 27Jun22 (build Aug 17 2022 15:43:34) complex

 executed on           tv2STDVTST date 2025.01.21  16:01:48

 INCAR:
   ISTART = 0
   ICHARG = 2
   IPIPOL = 3
   IVDW = 11
   IDIPOL = 3
   IVDW = 11
   ISPIN = 2
   ENCUT = 400
   PREC = Normal
   EDIFF = 2E-04
   GGA = PE
   ISMEAR = 1
   SIGMA = 0.2
   LREAL = .FALSE.
   ISYM = 1
   NSW = 800
   IBRION = 2
   POTIM = 0.5
   ISIF = 2
   EDIFFG = -.03
   NPAR = 4
   LWAVE = .FALSE.
   LCHARG = .FALSE.

 POTCAR:    PAW_PBE Cu 22Jun2005
|           W    W    AA    RRRRR   N    N  II  N    N   GGGG   !!!           |
|           W    W   A  A   R    R  NN   N  II  NN   N  G    G  !!!           |
|           W    W  A    A  R    R  N N  N  II  N N  N  G       !!!           |
|           W WW W  AAAAAA  RRRRR   N  N N  II  N  N N  G  GGG   !            |
|           WW  WW  A    A  R   R   N   NN  II  N   NN  G    G                |
|           W    W  A    A  R    R  N    N  II  N    N   GGGG   !!!           |
|     You use a magnetic or noncollinear calculation, but did not specify     |
|     the initial magnetic moment with the MAGMOM tag. Note that a            |
|     default of 1 will be used for all atoms. This ferromagnetic setup       |
|     may break the symmetry of the crystal, in particular it may rule        |
|     out finding an antiferromagnetic solution. Thence, we recommend         |
|     setting the initial magnetic moment manually or verifying carefully     |
|     that this magnetic setup is desired.                                    |

   TITEL  = PAW_PBE Cu 22Jun2005
   POMASS =   63.546; ZVAL   =   11.000    mass and valenz
   ENMAX  =  295.446; ENMIN  =  221.585 eV

  PAW_PBE Cu 22Jun2005                  :

 POSCAR: FCC Cu
  positions in cartesian coordinates
  velocities in cartesian coordinates
 exchange correlation table for  LEXCH =        8
   RHO(1)=    0.500       N(1)  =     2000
   RHO(2)=  100.500       N(2)  =     4000

 VTST: version 4.2, (08/11/21)

 CHAIN: initializing optimizer

 OPT: Using VASP Conjugate-Gradient optimizer
 CHAIN: Read ICHAIN            0

 POSCAR: FCC Cu
  positions in cartesian coordinates
  velocities in cartesian coordinates

 ion  position               nearest neighbor table
   1  0.000  0.000  0.000-   2 2.57   2 2.57   2 2.57   2 2.57   3 2.57
   2  0.500  0.500  0.054-   3 2.57   3 2.57   3 2.57   1 2.57   3 2.57   1 2.57   1 2.57   1 2.57
                             4 2.57
   3  0.000  0.000  0.107-   2 2.57   2 2.57   2 2.57   4 2.57   2 2.57   4 2.57   4 2.57   4 2.57
                             1 2.57   5 2.57
   4  0.500  0.500  0.161-   3 2.57   5 2.57   3 2.57   5 2.57   3 2.57   5 2.57   3 2.57   5 2.57
                             2 2.57   6 2.57
   5  0.000  0.000  0.214-   6 2.57   6 2.57   6 2.57   4 2.57   6 2.57   4 2.57   4 2.57   4 2.57
                             7 2.57   3 2.57
   6  0.500  0.500  0.268-   5 2.57   5 2.57   5 2.57   7 2.57   5 2.57   7 2.57   7 2.57   7 2.57
                             4 2.57   8 2.57
   7  0.000  0.000  0.321-   6 2.57   8 2.57   6 2.57   8 2.57   6 2.57   8 2.57   6 2.57   8 2.57
                             5 2.57
   8  0.500  0.500  0.375-   7 2.57   7 2.57   7 2.57   7 2.57   6 2.57

  LATTYP: Found a simple orthorhombic cell.
 ALAT       =     2.5667977333
 B/A-ratio  =     1.4142135422
 C/A-ratio  =     9.3438574294

  Lattice vectors:

 A1 = (   0.0000000000,  -2.5667977333,   0.0000000000)
 A2 = (   3.6300001144,   0.0000000000,   0.0000000000)
 A3 = (   0.0000000000,   0.0000000000,  23.9837920700)

Analysis of symmetry for initial positions (statically):
 Subroutine PRICEL returns:
 Original cell was already a primitive cell.

 Routine SETGRP: Setting up the symmetry group for a
 simple orthorhombic supercell.

 Subroutine GETGRP returns: Found  8 space group operations
 (whereof  4 operations were pure point group operations)
 out of a pool of  8 trial point group operations.

The static configuration has the point symmetry C_2v.
 The point group associated with its full space group is D_2h.

Analysis of symmetry for dynamics (positions and initial velocities):
 Subroutine PRICEL returns:
 Original cell was already a primitive cell.

[...]

The dynamic configuration has the point symmetry C_2v.
 The point group associated with its full space group is D_2h.

Analysis of constrained symmetry for selective dynamics:
 Subroutine PRICEL returns:
 Original cell was already a primitive cell.

[...]

The constrained configuration has the point symmetry C_2v.

Analysis of structural, dynamic, and magnetic symmetry:
 Subroutine PRICEL returns:
 Original cell was already a primitive cell.

 Routine SETGRP: Setting up the symmetry group for a
 simple orthorhombic supercell.

 Subroutine GETGRP returns: Found  4 space group operations
 (whereof  4 operations were pure point group operations)
 out of a pool of  8 trial point group operations.

The overall configuration has the point symmetry C_2v.

 Subroutine INISYM returns: Found  4 space group operations
 (whereof  4 operations are pure point group operations),
 and found     1 'primitive' translations

                                     Primitive cell

  volume of cell :     223.4684

  direct lattice vectors                    reciprocal lattice vectors
     3.630000114  0.000000000  0.000000000     0.275482085  0.000000000  0.000000000
     0.000000000  2.566797733  0.000000000     0.000000000  0.389590495  0.000000000
     0.000000000  0.000000000 23.983792070     0.000000000  0.000000000  0.041694824

  length of vectors
     3.630000114  2.566797733 23.983792070     0.275482085  0.389590495  0.041694824

  position of ions in fractional coordinates (direct lattice)
     0.000000000  0.000000000  0.000000000
     0.500000000  0.500000000  0.053511090
     0.000000000  0.000000000  0.107022181
     0.500000000  0.500000000  0.160533271
     0.000000000  0.000000000  0.214044362
     0.500000000  0.500000000  0.267555452
     0.000000000  0.000000000  0.321066543
     0.500000000  0.500000000  0.374577633

  ion indices of the primitive-cell ions
   primitive index   ion index
                 1           1
                 2           2
                 3           3
                 4           4
                 5           5
                 6           6
                 7           7
                 8           8

 KPOINTS: Auto-mesh

Automatic generation of k-mesh.
 Grid dimensions read from file:
 generate k-points for:    3    3    1

 Generating k-lattice:

  Cartesian coordinates                     Fractional coordinates (reciprocal lattice)
     0.091827362  0.000000000  0.000000000     0.333333333  0.000000000  0.000000000
     0.000000000  0.129863498  0.000000000     0.000000000  0.333333333  0.000000000
     0.000000000  0.000000000  0.041694824     0.000000000  0.000000000  1.000000000

  Length of vectors
     0.091827362  0.129863498  0.041694824

  Shift w.r.t. Gamma in fractional coordinates (k-lattice)
     0.000000000  0.000000000  0.000000000

 Subroutine IBZKPT returns following result:

 Found      4 irreducible k-points:

 Following reciprocal coordinates:
            Coordinates               Weight
  0.000000  0.000000  0.000000      1.000000
  0.333333  0.000000  0.000000      2.000000
  0.000000  0.333333  0.000000      2.000000
  0.333333  0.333333  0.000000      4.000000

 Following cartesian coordinates:
            Coordinates               Weight
  0.000000  0.000000  0.000000      1.000000
  0.091827  0.000000  0.000000      2.000000
  0.000000  0.129863  0.000000      2.000000
  0.091827  0.129863  0.000000      4.000000

 SYSTEM =  unknown system
 POSCAR =  FCC Cu

 Startparameter for this run:
   NWRITE =      2    write-flag & timer
   PREC   = normal    normal or accurate (medium, high low for compatibility)
   ISTART =      0    job   : 0-new  1-cont  2-samecut
   ICHARG =      2    charge: 1-file 2-atom 10-const
   ISPIN  =      2    spin polarized calculation?
   LNONCOLLINEAR =      F non collinear calculations
   LSORBIT =      F    spin-orbit coupling
   INIWAV =      1    electr: 0-lowe 1-rand  2-diag
   LASPH  =      F    aspherical Exc in radial PAW
 Electronic Relaxation 1
   ENCUT  =  400.0 eV  29.40 Ry    5.42 a.u.   5.92  4.19 39.11*2*pi/ulx,y,z
   ENINI  =  400.0     initial cutoff
   ENAUG  =  587.0 eV  augmentation charge cutoff
   NELM   =     60;   NELMIN=  2; NELMDL= -5     # of ELM steps
   EDIFF  = 0.2E-03   stopping-criterion for ELM
   LREAL  =      F    real-space projection
   NLSPLINE    = F    spline interpolate recip. space projectors
   LCOMPAT=      F    compatible to vasp.4.4
   GGA_COMPAT  = T    GGA compatible to vasp.4.4-vasp.4.6
   LMAXPAW     = -100 max onsite density
   LMAXMIX     =    2 max onsite mixed and CHGCAR
   VOSKOWN=      0    Vosko Wilk Nusair interpolation
   ROPT   =    0.00000
 Ionic relaxation
   EDIFFG = -.3E-01   stopping-criterion for IOM
   NSW    =    800    number of steps for IOM
   NBLOCK =      1;   KBLOCK =    800    inner block; outer block
   IBRION =      2    ionic relax: 0-MD 1-quasi-New 2-CG
   NFREE  =      1    steps in history (QN), initial steepest desc. (CG)
   ISIF   =      2    stress and relaxation
   IWAVPR =     11    prediction:  0-non 1-charg 2-wave 3-comb
   ISYM   =      1    0-nonsym 1-usesym 2-fastsym
   LCORR  =      T    Harris-Foulkes like correction to forces

   POTIM  = 0.5000    time-step for ionic-motion
   TEIN   =    0.0    initial temperature
   TEBEG  =    0.0;   TEEND  =   0.0 temperature during run
   SMASS  =  -3.00    Nose mass-parameter (am)
   estimated Nose-frequenzy (Omega)   =  0.10E-29 period in steps = 0.13E+47 mass=  -0.301E-27a.u.
   SCALEE = 1.0000    scale energy and forces
   NPACO  =    256;   APACO  = 10.0  distance and # of slots for P.C.
   PSTRESS=    0.0 pullay stress

  Mass of Ions in am
   POMASS =  63.55
  Ionic Valenz
   ZVAL   =  11.00
  Atomic Wigner-Seitz radii
  virtual crystal weights
   VCA    =   1.00
   NELECT =      88.0000    total number of electrons
   NUPDOWN=      -1.0000    fix difference up-down

 DOS related values:
   EMIN   =  10.00;   EMAX   =-10.00  energy-range for DOS
   EFERMI =   0.00
   ISMEAR =     1;   SIGMA  =   0.20  broadening in eV -4-tet -1-fermi 0-gaus

 Electronic relaxation 2 (details)
   IALGO  =     38    algorithm
   LDIAG  =      T    sub-space diagonalisation (order eigenvalues)
   LSUBROT=      F    optimize rotation matrix (better conditioning)
   TURBO    =      0    0=normal 1=particle mesh
   IRESTART =      0    0=no restart 2=restart with 2 vectors
   NREBOOT  =      0    no. of reboots
   NMIN     =      0    reboot dimension
   EREF     =   0.00    reference energy to select bands
   IMIX   =      4    mixing-type and parameters
     AMIX     =   0.40;   BMIX     =  1.00
     AMIX_MAG =   1.60;   BMIX_MAG =  1.00
     AMIN     =   0.10
     WC   =   100.;   INIMIX=   1;  MIXPRE=   1;  MAXMIX= -45

 Intra band minimization:
   WEIMIN = 0.0010     energy-eigenvalue tresh-hold
   EBREAK =  0.89E-06  absolut break condition
   DEPER  =   0.30     relativ break condition

   TIME   =   0.40     timestep for ELM

[...]
  FORCES: max atom, RMS     0.462770    0.172760
  FORCE total and by dimension    0.488640    0.462770
  Stress total and by dimension    8.629338    6.270809
 Steepest descent step on ions:
 trial-energy change:   -0.019905  1 .order   -0.019504   -0.022942   -0.016066
  (g-gl).g = 0.229E-01      g.g   = 0.229E-01  gl.gl    = 0.000E+00
 g(Force)  = 0.229E-01   g(Stress)= 0.000E+00 ortho     = 0.000E+00
 gamma     =   0.00000
 trial     =   1.00000
 opt step  =   3.33640  (harmonic =   3.33640) maximal distance =0.04093391
 next E    =   -31.593352   (d E  =  -0.03827)

[...]

 d Force = 0.1860122E-01[-0.334E-03, 0.375E-01]  d Energy = 0.1971621E-01-0.111E-02
 d Force =-0.1621724E+03[-0.163E+03,-0.162E+03]  d Ewald  =-0.1622077E+03 0.353E-01

[...]

 stress matrix after NEB project (eV)
     -6.01022      0.00000      0.00000
      0.00000     -5.06616      0.00000
      0.00000      0.00000     -2.69527
  FORCES: max atom, RMS     0.110057    0.056688
  FORCE total and by dimension    0.160338    0.110057
  Stress total and by dimension    8.309827    6.010225
 Conjugate gradient step on ions:
 trial-energy change:   -0.003054  1 .order   -0.002903   -0.003649   -0.002157
  (g-gl).g = 0.265E-02      g.g   = 0.250E-02  gl.gl    = 0.229E-01
 g(Force)  = 0.250E-02   g(Stress)= 0.000E+00 ortho     =-0.143E-03
 gamma     =   0.11535
 trial     =   1.46728
 opt step  =   3.58843  (harmonic =   3.58843) maximal distance =0.00660667
 next E    =   -31.599163   (d E  =  -0.00446)

[...]

 d Force =-0.1090641E-02[-0.524E-02, 0.306E-02]  d Energy =-0.1119507E-02 0.289E-04
 d Force =-0.2639529E+03[-0.264E+03,-0.264E+03]  d Ewald  =-0.2639538E+03 0.892E-03

[...]

 d Force = 0.1490673E-02[-0.329E-03, 0.331E-02]  d Energy = 0.1934105E-02-0.443E-03
 d Force = 0.1667318E+03[ 0.167E+03, 0.167E+03]  d Ewald  = 0.1667321E+03-0.223E-03

[...]

 stress matrix after NEB project (eV)
     -5.68084      0.00000      0.00000
      0.00000     -4.84076      0.00000
      0.00000      0.00000     -2.09000
  FORCES: max atom, RMS     0.099129    0.059212
  FORCE total and by dimension    0.167476    0.099129
  Stress total and by dimension    7.750676    5.680837
 Conjugate gradient step on ions:
 trial-energy change:   -0.003148  1 .order   -0.003041   -0.003612   -0.002470
  (g-gl).g = 0.172E-02      g.g   = 0.193E-02  gl.gl    = 0.250E-02
 g(Force)  = 0.193E-02   g(Stress)= 0.000E+00 ortho     = 0.123E-03
 gamma     =   0.68846
 trial     =   1.79043
 opt step  =   5.66183  (harmonic =   5.66183) maximal distance =0.00248349
 next E    =   -31.607167   (d E  =  -0.00571)

[...]

 d Force = 0.3005675E-02[ 0.656E-03, 0.536E-02]  d Energy = 0.2126685E-02 0.879E-03
 d Force = 0.3186562E+03[ 0.318E+03, 0.319E+03]  d Ewald  = 0.3186566E+03-0.447E-03

[...]

 stress matrix after NEB project (eV)
     -4.63774      0.00000      0.00000
      0.00000     -3.91671      0.00000
      0.00000      0.00000     -0.38193
  FORCES: max atom, RMS     0.106629    0.051312
  FORCE total and by dimension    0.145133    0.106629
  Stress total and by dimension    6.082360    4.637736
 Conjugate gradient step on ions:
 trial-energy change:   -0.003436  1 .order   -0.002790   -0.003295   -0.002286
  (g-gl).g = 0.214E-02      g.g   = 0.192E-02  gl.gl    = 0.193E-02
 g(Force)  = 0.192E-02   g(Stress)= 0.000E+00 ortho     =-0.140E-03
 gamma     =   1.10765
 trial     =   1.87215
 opt step  =   6.11095  (harmonic =   6.11095) maximal distance =0.00000000
 next E    =   -31.615832   (d E  =  -0.00538)

[...]

 d Force = 0.2809298E-02[ 0.444E-03, 0.518E-02]  d Energy = 0.2831385E-02-0.221E-04
 d Force =-0.2417237E+03[-0.242E+03,-0.241E+03]  d Ewald  =-0.2417245E+03 0.853E-03

[...]

 d Force =-0.1234361E-04[-0.663E-04, 0.416E-04]  d Energy = 0.4049260E-04-0.528E-04
 d Force =-0.2269585E+02[-0.227E+02,-0.227E+02]  d Ewald  =-0.2269585E+02 0.705E-06

[...]

 d Force = 0.2292192E-05[-0.361E-04, 0.407E-04]  d Energy =-0.1696982E-04 0.193E-04
 d Force = 0.1394579E+02[ 0.139E+02, 0.139E+02]  d Ewald  = 0.1394579E+02-0.164E-06

[...]

 d Force =-0.3167596E-06[-0.187E-04, 0.181E-04]  d Energy =-0.1342298E-04 0.131E-04
 d Force =-0.6972629E+01[-0.697E+01,-0.697E+01]  d Ewald  =-0.6972629E+01 0.205E-07

[...]

 d Force = 0.2793926E-05[-0.392E-05, 0.951E-05]  d Energy = 0.2486233E-04-0.221E-04
 d Force = 0.3546445E+01[ 0.355E+01, 0.355E+01]  d Ewald  = 0.3546445E+01-0.274E-08

[...]

 d Force = 0.1313619E-03[-0.899E-03, 0.116E-02]  d Energy = 0.4210841E-03-0.290E-03
 d Force =-0.2738591E+02[-0.274E+02,-0.274E+02]  d Ewald  =-0.2738600E+02 0.856E-04

 stress matrix after NEB project (eV)
     -5.36195      0.00000      0.00000
      0.00000     -4.76688      0.00000
      0.00000      0.00000     -0.90532
  FORCES: max atom, RMS     0.060072    0.027490
  FORCE total and by dimension    0.077754    0.060072
  Stress total and by dimension    7.231410    5.361953
 Conjugate gradient step on ions:
 trial-energy change:   -0.000421  1 .order   -0.000131   -0.001161    0.000899
  (g-gl).g = 0.301E-03      g.g   = 0.410E-03  gl.gl    = 0.192E-02
 g(Force)  = 0.410E-03   g(Stress)= 0.000E+00 ortho     = 0.632E-04
 gamma     =   0.15722
 trial     =   2.76255
 opt step  =   1.55745  (harmonic =   1.55745) maximal distance =0.00071528
 next E    =   -31.617084   (d E  =  -0.00033)

[...]

 eigenvalues of (default mixing * dielectric matrix)
  average eigenvalue GAMMA=   0.8736
  0.8736

[...]

 d Force = 0.6966763E-04[-0.253E-03, 0.392E-03]  d Energy =-0.1319082E-04 0.829E-04
 d Force = 0.1194689E+02[ 0.119E+02, 0.119E+02]  d Ewald  = 0.1194690E+02-0.712E-05

[...]

 eigenvalue-minimisations  :   960
 total energy-change (2. order) : 0.2808492E-03  (-0.3423414E-02)
 number of electron      88.0000876 magnetization       0.0000017
 augmentation part       56.1685061 magnetization       0.0000022

 Broyden mixing:
  rms(total) = 0.15816E-02    rms(broyden)= 0.15766E-02
  rms(prec ) = 0.16553E-02
  weight for this iteration     100.00

[...]

--------------------------------------- Iteration     20(   2)  ---------------------------------------

 eigenvalue-minimisations  :   792
 total energy-change (2. order) :-0.4398486E-04  (-0.4859910E-04)
 number of electron      88.0000876 magnetization       0.0000017
 augmentation part       56.1685061 magnetization       0.0000022

 Free energy of the ion-electron system (eV)
  alpha Z        PSCENC =       209.44792451
  Ewald energy   TEWEN  =     42572.34708927
  -Hartree energ DENC   =    -53248.66680997
  -exchange      EXHF   =         0.00000000
  -V(xc)+E(xc)   XCENC  =       356.53608263
  PAW double counting   =     10469.40622901   -11330.78012828
  entropy T*S    EENTRO =        -0.00431647
  eigenvalues    EBANDS =      -184.54637877
  atomic energy  EATOM  =     11127.66112160
  Solvation  Ediel_sol  =         0.00000000
  free energy    TOTEN  =       -28.59918646 eV

  energy without entropy =      -28.59486999  energy(sigma->0) =      -28.59774764

 average (electrostatic) potential at core
  the test charge radii are     0.9430
  (the norm of the test charge is              1.0000)
       1 -69.8678       2 -70.4274       3 -70.5680       4 -70.5720       5 -70.5649
       6 -70.5701       7 -70.4336       8 -69.9636

 E-fermi :   0.5244     XC(G=0):  -6.1919     alpha+bet : -5.6757

 Fermi energy:         0.5244105786

[...]

 k-point     4 :       0.3333    0.3333    0.0000
  band No.  band energies     occupation
      1      -5.0382      1.00000
      2      -4.2986      1.00000
      3      -3.7663      1.00000
      4      -3.6463      1.00000
      5      -3.4014      1.00000
      6      -3.3538      1.00000
      7      -3.2242      1.00000
      8      -3.1724      1.00000
      9      -3.0661      1.00000
     10      -3.0097      1.00000
     11      -2.7995      1.00000
     12      -2.7140      1.00000
     13      -2.5839      1.00000
     14      -2.5347      1.00000
     15      -2.4795      1.00000
     16      -2.4222      1.00000
     17      -2.3788      1.00000
     18      -2.2526      1.00000
     19      -2.1856      1.00000
     20      -2.1450      1.00000
     21      -2.1234      1.00000
     22      -2.0119      1.00000
     23      -1.9364      1.00000
     24      -1.8622      1.00000
     25      -1.7555      1.00000
     26      -1.7330      1.00000
     27      -1.4885      1.00000
     28      -1.4427      1.00000
     29      -1.3459      1.00000
     30      -1.3097      1.00000
     31      -1.2749      1.00000
     32      -1.1884      1.00000
     33      -1.1721      1.00000
     34      -1.0624      1.00000
     35      -0.9809      1.00000
     36      -0.9623      1.00000
     37      -0.9019      1.00000
     38      -0.8808      1.00000
     39      -0.8170      1.00000
     40      -0.7727      1.00000
     41      -0.7483      1.00000
     42      -0.3978      1.00000
     43       0.4622      0.74979
     44       1.4875     -0.00000
     45       1.8803     -0.00000
     46       2.4686     -0.00000
     47       3.7187     -0.00000
     48       3.9159     -0.00000
     49       5.3979     -0.00000
     50       5.5001     -0.00000
     51       5.8639     -0.00000
     52       6.6083      0.00000
     53       7.6202      0.00000
     54       7.7870      0.00000
     55       7.9668      0.00000
     56       8.8452      0.00000
 Fermi energy:         0.5244105786

 spin component 2

[...]

 k-point     4 :       0.3333    0.3333    0.0000
  band No.  band energies     occupation
      1      -5.0382      1.00000
      2      -4.2986      1.00000
      3      -3.7663      1.00000
      4      -3.6463      1.00000
      5      -3.4014      1.00000
      6      -3.3538      1.00000
      7      -3.2242      1.00000
      8      -3.1724      1.00000
      9      -3.0661      1.00000
     10      -3.0097      1.00000
     11      -2.7995      1.00000
     12      -2.7140      1.00000
     13      -2.5839      1.00000
     14      -2.5347      1.00000
     15      -2.4795      1.00000
     16      -2.4222      1.00000
     17      -2.3788      1.00000
     18      -2.2526      1.00000
     19      -2.1856      1.00000
     20      -2.1450      1.00000
     21      -2.1234      1.00000
     22      -2.0119      1.00000
     23      -1.9364      1.00000
     24      -1.8622      1.00000
     25      -1.7555      1.00000
     26      -1.7330      1.00000
     27      -1.4885      1.00000
     28      -1.4427      1.00000
     29      -1.3459      1.00000
     30      -1.3097      1.00000
     31      -1.2749      1.00000
     32      -1.1884      1.00000
     33      -1.1721      1.00000
     34      -1.0624      1.00000
     35      -0.9809      1.00000
     36      -0.9623      1.00000
     37      -0.9019      1.00000
     38      -0.8808      1.00000
     39      -0.8170      1.00000
     40      -0.7727      1.00000
     41      -0.7483      1.00000
     42      -0.3978      1.00000
     43       0.4622      0.74979
     44       1.4875     -0.00000
     45       1.8803     -0.00000
     46       2.4686     -0.00000
     47       3.7187     -0.00000
     48       3.9159     -0.00000
     49       5.3979     -0.00000
     50       5.5001     -0.00000
     51       5.8639     -0.00000
     52       6.6083      0.00000
     53       7.6203      0.00000
     54       7.7870      0.00000
     55       7.9668      0.00000
     56       8.8457      0.00000

[...]

 soft charge-density along one line, spin component           2
         0         1         2         3         4         5         6         7         8         9
 total charge-density along one line

------------------------ aborting loop because EDIFF is reached ----------------------------------------

 DIPCOR: dipole corrections for dipol
 direction  3 min pos   168,
 dipolmoment           0.000000      0.000000      0.002329 electrons x Angstroem
 Tr[quadrupol]      -216.717568

 energy correction for charged system         0.000000 eV
 dipol+quadrupol energy correction            0.000002 eV
 added-field ion interaction          0.000000 eV  (added to PSCEN)

  *************** adding dipol energy to TOTEN NOW ****************

         DFTD3 V3.0 Rev 1
 Edisp (eV)   -3.01797

 E6    (eV) :    -1.2100
 E8    (eV) :    -1.8080
 % E8        : 59.91

  FORCE on cell =-STRESS in cart. coord.  units (eV):
  Direction    XX          YY          ZZ          XY          YZ          ZX
  Alpha Z   209.44792   209.44792   209.44792
  Ewald   48245.06772 48410.28252-54083.00786     0.00000    -0.00000     0.00000
  Hartree 51288.52768 51409.39987-49449.56516    -0.00000    -0.00000    -0.00000
  E(xc)    -514.20142  -514.04681  -514.73526     0.00000     0.00000    -0.00000
  Local  ************************102536.48452     0.00000     0.00000    -0.00000
  n-local  -176.09219  -171.34704  -175.91886     6.43685    -0.00000     0.00000
  augment   755.07370   757.92100   757.62694     0.00000    -0.00000    -0.00000
  Kinetic   717.11693   718.10233   720.90885     6.28262     0.00000    -0.00000
  Fock        0.00000     0.00000     0.00000     0.00000     0.00000     0.00000
  vdW        -3.67415    -3.70793    -2.57389    -0.00000     0.00000    -0.00000
  Total      -5.79983    -5.20110    -1.33279     0.00000     0.00000     0.00000
  in kB     -41.58243   -37.28975    -9.55556     0.00000     0.00000     0.00000

 VOLUME and BASIS-vectors are now :
  energy-cutoff  :      400.00
  volume of cell :      223.47
      direct lattice vectors                 reciprocal lattice vectors
     3.630000114  0.000000000  0.000000000     0.275482085  0.000000000  0.000000000
     0.000000000  2.566797733  0.000000000     0.000000000  0.389590495  0.000000000
     0.000000000  0.000000000 23.983792070     0.000000000  0.000000000  0.041694824

  length of vectors
     3.630000114  2.566797733 23.983792070     0.275482085  0.389590495  0.041694824

 FORCES acting on ions
    electron-ion (+dipol)            ewald-force                    non-local-force                 convergence-correction
   -.376E-13 0.310E-11 0.456E+04   -.622E-07 0.258E-07 -.455E+04   0.000E+00 0.000E+00 -.610E+01   0.961E-12 -.162E-12 0.169E-02
   0.744E-06 -.131E-05 0.344E+04   0.128E-06 -.537E-07 -.344E+04   0.000E+00 0.000E+00 0.458E+00   -.488E-10 0.829E-10 0.779E-01
   -.640E-13 0.304E-12 0.205E+04   -.128E-06 0.539E-07 -.205E+04   0.000E+00 0.000E+00 -.768E+00   0.198E-10 -.635E-11 0.135E+00
   0.757E-06 -.132E-05 0.681E+03   0.126E-06 -.525E-07 -.681E+03   0.000E+00 0.000E+00 0.147E+00   -.724E-10 0.690E-10 0.181E+00
   -.509E-13 -.680E-12 -.679E+03   -.128E-06 0.536E-07 0.679E+03   0.000E+00 0.000E+00 -.163E+00   0.130E-09 -.576E-10 0.190E+00
   0.759E-06 -.132E-05 -.201E+04   0.124E-06 -.520E-07 0.201E+04   0.000E+00 0.000E+00 0.122E+01   0.718E-10 -.125E-09 0.770E-01
   -.639E-13 -.172E-11 -.347E+04   -.133E-06 0.567E-07 0.347E+04   0.000E+00 0.000E+00 -.119E+01   -.130E-09 0.571E-10 0.495E-01
   0.803E-06 -.134E-05 -.457E+04   0.739E-07 -.318E-07 0.456E+04   0.000E+00 0.000E+00 0.602E+01   0.119E-09 -.151E-09 -.251E-01
   0.306E-05 -.530E-05 -.263E+00   0.159E-13 -.225E-14 -.182E-11   0.000E+00 0.000E+00 -.363E+00   0.906E-10 -.131E-09 0.687E+00

 POSITION                                       TOTAL-FORCE (eV/Angst)
      0.00000      0.00000      0.00000         0.000000      0.000000      0.487027
      1.81500      1.28340      1.28340         0.000000      0.000000     -0.498606
      0.00000      0.00000      2.51066         0.000000      0.000000      0.018709
      1.81500      1.28340      3.78776         0.000000      0.000000     -0.017283
      0.00000      0.00000      5.05360         0.000000      0.000000     -0.006148
      1.81500      1.28340      6.30511         0.000000      0.000000      0.028193
      0.00000      0.00000      7.60564         0.000000      0.000000      0.000511
      1.81500      1.28340      8.74631         0.000000      0.000000     -0.012403
    total drift:                                0.000003     -0.000005      0.060922

  FREE ENERGIE OF THE ION-ELECTRON SYSTEM (eV)
  free  energy   TOTEN  =       -31.61714981 eV

  energy  without entropy=      -31.61283334  energy(sigma->0) =      -31.61571099

 d Force = 0.1156075E-04[-0.759E-04, 0.990E-04]  d Energy =-0.1486913E-04 0.264E-04
 d Force =-0.4682220E+01[-0.468E+01,-0.468E+01]  d Ewald  =-0.4682220E+01 0.429E-06

 stress matrix after NEB project (eV)
     -5.79983      0.00000      0.00000
      0.00000     -5.20110      0.00000
      0.00000      0.00000     -1.33279
  FORCES: max atom, RMS     0.028193    0.014298
  FORCE total and by dimension    0.040441    0.028193
  Stress total and by dimension    7.903532    5.799833

 reached required accuracy - stopping structural energy minimisation