 vasp.6.3.2 27Jun22 (build Aug 17 2022 15:43:34) complex

 executed on           tv2STDVTST date 2025.02.04  13:32:01

 INCAR:
   ISTART = 0
   ICHARG = 2
   IPIPOL = 3
   IVDW = 11
   ISPIN = 2
   ENCUT = 400
   PREC = Normal
   EDIFF = 2E-04
   GGA = PE
   ISMEAR = 1
   SIGMA = 0.2
   LREAL = .FALSE.
   ISYM = 1
   NSW = 800
   IBRION = 2
   POTIM = 0.5
   ISIF = 2
   EDIFFG = -.03
   NPAR = 4
   LWAVE = .FALSE.
   LCHARG = .FALSE.

 POTCAR:    PAW_PBE Cu 22Jun2005
 POTCAR:    PAW_PBE H 15Jun2001
|           W    W    AA    RRRRR   N    N  II  N    N   GGGG   !!!           |
|           W    W   A  A   R    R  NN   N  II  NN   N  G    G  !!!           |
|           W    W  A    A  R    R  N N  N  II  N N  N  G       !!!           |
|           W WW W  AAAAAA  RRRRR   N  N N  II  N  N N  G  GGG   !            |
|           WW  WW  A    A  R   R   N   NN  II  N   NN  G    G                |
|           W    W  A    A  R    R  N    N  II  N    N   GGGG   !!!           |
|     You use a magnetic or noncollinear calculation, but did not specify     |
|     the initial magnetic moment with the MAGMOM tag. Note that a            |
|     default of 1 will be used for all atoms. This ferromagnetic setup       |
|     may break the symmetry of the crystal, in particular it may rule        |
|     out finding an antiferromagnetic solution. Thence, we recommend         |
|     setting the initial magnetic moment manually or verifying carefully     |
|     that this magnetic setup is desired.                                    |

   TITEL  = PAW_PBE Cu 22Jun2005
   POMASS =   63.546; ZVAL   =   11.000    mass and valenz
   ENMAX  =  295.446; ENMIN  =  221.585 eV

   TITEL  = PAW_PBE H 15Jun2001
   POMASS =    1.000; ZVAL   =    1.000    mass and valenz
   ENMAX  =  250.000; ENMIN  =  200.000 eV

  PAW_PBE Cu 22Jun2005                  :
  PAW_PBE H 15Jun2001                   :

 POSCAR: FCC Cu
  positions in cartesian coordinates
 exchange correlation table for  LEXCH =        8
   RHO(1)=    0.500       N(1)  =     2000
   RHO(2)=  100.500       N(2)  =     4000

 VTST: version 4.2, (08/11/21)

 CHAIN: initializing optimizer

 OPT: Using VASP Conjugate-Gradient optimizer
 CHAIN: Read ICHAIN            0

 POSCAR: FCC Cu
  positions in cartesian coordinates

 ion  position               nearest neighbor table
   1  0.000  0.000  0.000-   3 2.51   2 2.57   2 2.57   2 2.57   2 2.57
   2  0.500  0.500  0.054-   4 2.50   3 2.54   3 2.54   3 2.54   3 2.54   1 2.57   1 2.57   1 2.57
                             1 2.57
   3  0.000  0.000  0.105-   1 2.51   2 2.54   2 2.54   2 2.54   2 2.54   5 2.54   4 2.56   4 2.56
                             4 2.56   4 2.56
   4  0.500  0.500  0.158-   2 2.50   6 2.52   5 2.56   5 2.56   5 2.56   5 2.56   3 2.56   3 2.56
                             3 2.56   3 2.56
   5  0.000  0.000  0.211-   3 2.54   6 2.55   6 2.55   6 2.55   6 2.55   7 2.55   4 2.56   4 2.56
                             4 2.56   4 2.56
   6  0.500  0.500  0.263-   8 2.44   4 2.52   5 2.55   5 2.55   5 2.55   5 2.55   7 2.58   7 2.58
                             7 2.58   7 2.58
   7  0.000  0.000  0.317-   8 2.50   8 2.50   8 2.50   8 2.50   5 2.55   6 2.58   6 2.58   6 2.58
                             6 2.58
   8  0.500  0.500  0.365-   6 2.44   7 2.50   7 2.50   7 2.50   7 2.50
   9  0.500  0.000  0.427-  10 0.75
  10  0.500  0.206  0.449-   9 0.75

  LATTYP: Found a simple orthorhombic cell.
 ALAT       =     2.5667977333
 B/A-ratio  =     1.4142135422
 C/A-ratio  =     9.3438571494

  Lattice vectors:

 A1 = (   0.0000000000,  -2.5667977333,   0.0000000000)
 A2 = (   3.6300001144,   0.0000000000,   0.0000000000)
 A3 = (   0.0000000000,   0.0000000000,  23.9837913513)

Analysis of symmetry for initial positions (statically):
 Subroutine PRICEL returns:
 Original cell was already a primitive cell.

 Routine SETGRP: Setting up the symmetry group for a
 simple orthorhombic supercell.

 Subroutine GETGRP returns: Found  2 space group operations
 (whereof  2 operations were pure point group operations)
 out of a pool of  8 trial point group operations.

The static configuration has the point symmetry C_1h.

Analysis of symmetry for dynamics (positions and initial velocities):
 Subroutine PRICEL returns:
 Original cell was already a primitive cell.

[...]

The dynamic configuration has the point symmetry C_1h.

Analysis of structural, dynamic, and magnetic symmetry:
 Subroutine PRICEL returns:
 Original cell was already a primitive cell.

 Routine SETGRP: Setting up the symmetry group for a
 simple orthorhombic supercell.

 Subroutine GETGRP returns: Found  2 space group operations
 (whereof  2 operations were pure point group operations)
 out of a pool of  8 trial point group operations.

The overall configuration has the point symmetry C_1h.

 Subroutine INISYM returns: Found  2 space group operations
 (whereof  2 operations are pure point group operations),
 and found     1 'primitive' translations

                                     Primitive cell

  volume of cell :     223.4684

  direct lattice vectors                    reciprocal lattice vectors
     3.630000114  0.000000000  0.000000000     0.275482085  0.000000000  0.000000000
     0.000000000  2.566797733  0.000000000     0.000000000  0.389590495  0.000000000
     0.000000000  0.000000000 23.983791351     0.000000000  0.000000000  0.041694826

  length of vectors
     3.630000114  2.566797733 23.983791351     0.275482085  0.389590495  0.041694826

  position of ions in fractional coordinates (direct lattice)
     0.000000000  0.000000000  0.000000000
     0.500000000  0.500000000  0.053511090
     0.000000000  0.000000000  0.104681476
     0.500000000  0.500000000  0.157929955
     0.000000000  0.000000000  0.210708991
     0.500000000  0.500000000  0.262890478
     0.000000000  0.000000000  0.317115916
     0.500000000  0.500000000  0.364675901
     0.500000000  0.000000000  0.426907920
     0.500000000  0.205509633  0.448902010

  ion indices of the primitive-cell ions
   primitive index   ion index
                 1           1
                 2           2
                 3           3
                 4           4
                 5           5
                 6           6
                 7           7
                 8           8
                 9           9
                10          10

 KPOINTS: Auto-mesh

Automatic generation of k-mesh.
 Grid dimensions read from file:
 generate k-points for:    3    3    1

 Generating k-lattice:

  Cartesian coordinates                     Fractional coordinates (reciprocal lattice)
     0.091827362  0.000000000  0.000000000     0.333333333  0.000000000  0.000000000
     0.000000000  0.129863498  0.000000000     0.000000000  0.333333333  0.000000000
     0.000000000  0.000000000  0.041694826     0.000000000  0.000000000  1.000000000

  Length of vectors
     0.091827362  0.129863498  0.041694826

  Shift w.r.t. Gamma in fractional coordinates (k-lattice)
     0.000000000  0.000000000  0.000000000

 Subroutine IBZKPT returns following result:

 Found      4 irreducible k-points:

 Following reciprocal coordinates:
            Coordinates               Weight
  0.000000  0.000000  0.000000      1.000000
  0.333333  0.000000  0.000000      2.000000
  0.000000  0.333333  0.000000      2.000000
  0.333333  0.333333  0.000000      4.000000

 Following cartesian coordinates:
            Coordinates               Weight
  0.000000  0.000000  0.000000      1.000000
  0.091827  0.000000  0.000000      2.000000
  0.000000  0.129863  0.000000      2.000000
  0.091827  0.129863  0.000000      4.000000

 SYSTEM =  unknown system
 POSCAR =  FCC Cu

 Startparameter for this run:
   NWRITE =      2    write-flag & timer
   PREC   = normal    normal or accurate (medium, high low for compatibility)
   ISTART =      0    job   : 0-new  1-cont  2-samecut
   ICHARG =      2    charge: 1-file 2-atom 10-const
   ISPIN  =      2    spin polarized calculation?
   LNONCOLLINEAR =      F non collinear calculations
   LSORBIT =      F    spin-orbit coupling
   INIWAV =      1    electr: 0-lowe 1-rand  2-diag
   LASPH  =      F    aspherical Exc in radial PAW
 Electronic Relaxation 1
   ENCUT  =  400.0 eV  29.40 Ry    5.42 a.u.   5.92  4.19 39.11*2*pi/ulx,y,z
   ENINI  =  400.0     initial cutoff
   ENAUG  =  587.0 eV  augmentation charge cutoff
   NELM   =     60;   NELMIN=  2; NELMDL= -5     # of ELM steps
   EDIFF  = 0.2E-03   stopping-criterion for ELM
   LREAL  =      F    real-space projection
   NLSPLINE    = F    spline interpolate recip. space projectors
   LCOMPAT=      F    compatible to vasp.4.4
   GGA_COMPAT  = T    GGA compatible to vasp.4.4-vasp.4.6
   LMAXPAW     = -100 max onsite density
   LMAXMIX     =    2 max onsite mixed and CHGCAR
   VOSKOWN=      0    Vosko Wilk Nusair interpolation
   ROPT   =    0.00000   0.00000
 Ionic relaxation
   EDIFFG = -.3E-01   stopping-criterion for IOM
   NSW    =    800    number of steps for IOM
   NBLOCK =      1;   KBLOCK =    800    inner block; outer block
   IBRION =      2    ionic relax: 0-MD 1-quasi-New 2-CG
   NFREE  =      1    steps in history (QN), initial steepest desc. (CG)
   ISIF   =      2    stress and relaxation
   IWAVPR =     11    prediction:  0-non 1-charg 2-wave 3-comb
   ISYM   =      1    0-nonsym 1-usesym 2-fastsym
   LCORR  =      T    Harris-Foulkes like correction to forces

   POTIM  = 0.5000    time-step for ionic-motion
   TEIN   =    0.0    initial temperature
   TEBEG  =    0.0;   TEEND  =   0.0 temperature during run
   SMASS  =  -3.00    Nose mass-parameter (am)
   estimated Nose-frequenzy (Omega)   =  0.10E-29 period in steps = 0.13E+47 mass=  -0.301E-27a.u.
   SCALEE = 1.0000    scale energy and forces
   NPACO  =    256;   APACO  = 10.0  distance and # of slots for P.C.
   PSTRESS=    0.0 pullay stress

  Mass of Ions in am
   POMASS =  63.55  1.00
  Ionic Valenz
   ZVAL   =  11.00  1.00
  Atomic Wigner-Seitz radii
  virtual crystal weights
   VCA    =   1.00  1.00
   NELECT =      90.0000    total number of electrons
   NUPDOWN=      -1.0000    fix difference up-down

 DOS related values:
   EMIN   =  10.00;   EMAX   =-10.00  energy-range for DOS
   EFERMI =   0.00
   ISMEAR =     1;   SIGMA  =   0.20  broadening in eV -4-tet -1-fermi 0-gaus

 Electronic relaxation 2 (details)
   IALGO  =     38    algorithm
   LDIAG  =      T    sub-space diagonalisation (order eigenvalues)
   LSUBROT=      F    optimize rotation matrix (better conditioning)
   TURBO    =      0    0=normal 1=particle mesh
   IRESTART =      0    0=no restart 2=restart with 2 vectors
   NREBOOT  =      0    no. of reboots
   NMIN     =      0    reboot dimension
   EREF     =   0.00    reference energy to select bands
   IMIX   =      4    mixing-type and parameters
     AMIX     =   0.40;   BMIX     =  1.00
     AMIX_MAG =   1.60;   BMIX_MAG =  1.00
     AMIN     =   0.10
     WC   =   100.;   INIMIX=   1;  MIXPRE=   1;  MAXMIX= -45

 Intra band minimization:
   WEIMIN = 0.0010     energy-eigenvalue tresh-hold
   EBREAK =  0.83E-06  absolut break condition
   DEPER  =   0.30     relativ break condition

   TIME   =   0.40     timestep for ELM

[...]
 d Force =-0.1325275E+03[-0.133E+03,-0.133E+03]  d Ewald  =-0.1325333E+03 0.584E-02

 stress matrix after NEB project (eV)
     -5.00475      0.00000      0.00000
      0.00000     -4.37941      0.46011
      0.00000      0.46011     -0.52269
  FORCES: max atom, RMS     0.569595    0.239403
  FORCE total and by dimension    0.757058    0.455802
  Stress total and by dimension    6.702489    5.004746
 Conjugate gradient step on ions:
 trial-energy change:   -0.038470  1 .order   -0.039683   -0.048833   -0.030533
  (g-gl).g = 0.522E-01      g.g   = 0.532E-01  gl.gl    = 0.196E+00
 g(Force)  = 0.532E-01   g(Stress)= 0.000E+00 ortho     = 0.931E-03
 gamma     =   0.26608
 trial     =   0.91418
 opt step  =   2.43941  (harmonic =   2.43941) maximal distance =0.07340733
 next E    =   -38.416541   (d E  =  -0.06515)

[...]

 stress matrix after NEB project (eV)
     -4.02298      0.00000      0.00000
      0.00000     -3.44681      0.68590
      0.00000      0.68590      0.88702
  FORCES: max atom, RMS     0.521278    0.185300
  FORCE total and by dimension    0.585969    0.427291
  Stress total and by dimension    5.458258    4.022983
 Conjugate gradient step on ions:
 trial-energy change:   -0.009770  1 .order   -0.009183   -0.009936   -0.008431
  (g-gl).g = 0.266E-01      g.g   = 0.258E-01  gl.gl    = 0.189E-01
 g(Force)  = 0.258E-01   g(Stress)= 0.000E+00 ortho     =-0.371E-03
 gamma     =   1.41168
 trial     =   0.39324
 opt step  =   1.57295  (harmonic =   2.59526) maximal distance =0.04664907
 next E    =   -38.464704   (d E  =  -0.03279)

[...]

 d Force =-0.1045001E-02[-0.220E-01, 0.199E-01]  d Energy = 0.1384596E-02-0.243E-02
 d Force =-0.3051136E+03[-0.307E+03,-0.304E+03]  d Ewald  =-0.3051219E+03 0.824E-02

[...]

 d Force = 0.3216245E-02[ 0.297E-02, 0.347E-02]  d Energy = 0.3395208E-02-0.179E-03
 d Force = 0.1130324E+02[ 0.113E+02, 0.113E+02]  d Ewald  = 0.1130324E+02-0.820E-06

[...]

 d Force = 0.1807834E-03[ 0.474E-04, 0.314E-03]  d Energy =-0.4789756E-04 0.229E-03
 d Force = 0.7920683E+01[ 0.792E+01, 0.792E+01]  d Ewald  = 0.7920683E+01-0.280E-06

[...]

 d Force =-0.2155353E-04[-0.108E-03, 0.645E-04]  d Energy = 0.1085098E-03-0.130E-03
 d Force = 0.1899088E+02[ 0.190E+02, 0.190E+02]  d Ewald  = 0.1899088E+02-0.164E-06

[...]

 d Force =-0.3603766E-04[-0.139E-03, 0.673E-04]  d Energy =-0.4347130E-04 0.743E-05
 d Force =-0.1187350E+02[-0.119E+02,-0.119E+02]  d Ewald  =-0.1187350E+02 0.401E-07

[...]

 d Force =-0.2008105E-04[-0.493E-04, 0.915E-05]  d Energy =-0.8341952E-06-0.192E-04
 d Force = 0.1883892E+01[ 0.188E+01, 0.188E+01]  d Ewald  = 0.1883892E+01 0.226E-09

[...]

 d Force =-0.2907404E-04[-0.613E-03, 0.555E-03]  d Energy = 0.3914801E-03-0.421E-03
 d Force = 0.3101484E+02[ 0.310E+02, 0.310E+02]  d Ewald  = 0.3101485E+02-0.137E-04

[...]

 stress matrix after NEB project (eV)
     -4.81982      0.00000      0.00000
      0.00000     -4.36908      0.40716
      0.00000      0.40716     -0.43524
  FORCES: max atom, RMS     0.089767    0.039910
  FORCE total and by dimension    0.126206    0.071816
  Stress total and by dimension    6.545268    4.819823
 Conjugate gradient step on ions:
 trial-energy change:   -0.000701  1 .order   -0.000165   -0.000831    0.000500
  (g-gl).g = 0.721E-03      g.g   = 0.561E-03  gl.gl    = 0.896E-03
 g(Force)  = 0.561E-03   g(Stress)= 0.000E+00 ortho     =-0.159E-04
 gamma     =   0.80469
 trial     =   1.51637
 opt step  =   0.94657  (harmonic =   0.94657) maximal distance =0.00470380
 next E    =   -38.551066   (d E  =  -0.00026)

[...]

 d Force = 0.1240399E-04[ 0.456E-05, 0.203E-04]  d Energy = 0.1185197E-04 0.552E-06
 d Force = 0.2382381E+00[ 0.238E+00, 0.238E+00]  d Ewald  = 0.2382381E+00 0.407E-09

[...]

 d Force =-0.1907451E-05[-0.436E-05, 0.548E-06]  d Energy =-0.2786573E-05 0.879E-06
 d Force =-0.1107780E-01[-0.111E-01,-0.111E-01]  d Ewald  =-0.1107780E-01-0.320E-09

[...]

 d Force = 0.8459227E-08[-0.716E-07, 0.885E-07]  d Energy = 0.1821802E-06-0.174E-06
 d Force = 0.1466364E-02[ 0.147E-02, 0.147E-02]  d Ewald  = 0.1466364E-02-0.116E-09

[...]

 eigenvalues of (default mixing * dielectric matrix)
  average eigenvalue GAMMA=   0.4105
  0.4105

[...]

 d Force = 0.1207433E-03[-0.250E-03, 0.492E-03]  d Energy = 0.5004708E-03-0.380E-03
 d Force =-0.3353866E+01[-0.336E+01,-0.335E+01]  d Ewald  =-0.3353868E+01 0.201E-05

 stress matrix after NEB project (eV)
     -4.63536      0.00000      0.00000
      0.00000     -4.18681      0.35881
      0.00000      0.35881     -0.24317
  FORCES: max atom, RMS     0.033384    0.020938
  FORCE total and by dimension    0.066212    0.031872
  Stress total and by dimension    6.271572    4.635364
 Conjugate gradient step on ions:
 trial-energy change:   -0.000500  1 .order   -0.000121   -0.000492    0.000250
  (g-gl).g = 0.450E-03      g.g   = 0.299E-03  gl.gl    = 0.505E-03
 g(Force)  = 0.299E-03   g(Stress)= 0.000E+00 ortho     = 0.590E-04
 gamma     =   0.89058
 trial     =   1.39830
 opt step  =   0.92666  (harmonic =   0.92666) maximal distance =0.00505400
 next E    =   -38.552053   (d E  =  -0.00016)

[...]

 eigenvalue-minimisations  :  1016
 total energy-change (2. order) : 0.4175918E-03  (-0.8881515E-02)
 number of electron      90.0000731 magnetization       0.0000000
 augmentation part       56.1849479 magnetization       0.0000000

[...]

 d Force =-0.9337321E-04[-0.271E-03, 0.844E-04]  d Energy =-0.2036452E-03 0.110E-03
 d Force = 0.1132821E+01[ 0.113E+01, 0.113E+01]  d Ewald  = 0.1132821E+01-0.774E-07

[...]

 Broyden mixing:
  rms(total) = 0.23584E-02    rms(broyden)= 0.23531E-02
  rms(prec ) = 0.33744E-02
  weight for this iteration     100.00

[...]

--------------------------------------- Iteration     75(   2)  ---------------------------------------

 eigenvalue-minimisations  :   760
 total energy-change (2. order) :-0.7302944E-04  (-0.1154006E-03)
 number of electron      90.0000729 magnetization       0.0000000
 augmentation part       56.1840378 magnetization       0.0000000

 Free energy of the ion-electron system (eV)
  alpha Z        PSCENC =       216.17040255
  Ewald energy   TEWEN  =     42212.71311476
  -Hartree energ DENC   =    -52948.44109157
  -exchange      EXHF   =         0.00000000
  -V(xc)+E(xc)   XCENC  =       362.11831787
  PAW double counting   =     10520.65145258   -11382.56957960
  entropy T*S    EENTRO =        -0.00546158
  eigenvalues    EBANDS =      -168.62637883
  atomic energy  EATOM  =     11152.61838693
  Solvation  Ediel_sol  =         0.00000000
  free energy    TOTEN  =       -35.37083689 eV

  energy without entropy =      -35.36537531  energy(sigma->0) =      -35.36901637

 average (electrostatic) potential at core
  the test charge radii are     0.9430  0.5201
  (the norm of the test charge is              1.0000)
       1 -69.5889       2 -70.0520       3 -70.1973       4 -70.2214       5 -70.2192
       6 -70.2401       7 -70.0921       8 -69.7928       9 -37.0391      10 -36.9681

 E-fermi :   0.8802     XC(G=0):  -6.6002     alpha+bet : -5.9229

 Fermi energy:         0.8801710615

[...]

 k-point     4 :       0.3333    0.3333    0.0000
  band No.  band energies     occupation
      1      -5.6074      1.00000
      2      -4.6950      1.00000
      3      -3.9742      1.00000
      4      -3.4223      1.00000
      5      -3.3425      1.00000
      6      -3.0658      1.00000
      7      -3.0087      1.00000
      8      -2.8928      1.00000
      9      -2.8616      1.00000
     10      -2.7034      1.00000
     11      -2.6819      1.00000
     12      -2.4526      1.00000
     13      -2.3893      1.00000
     14      -2.2904      1.00000
     15      -2.2020      1.00000
     16      -2.1720      1.00000
     17      -2.1131      1.00000
     18      -2.0486      1.00000
     19      -1.9332      1.00000
     20      -1.8723      1.00000
     21      -1.8512      1.00000
     22      -1.7953      1.00000
     23      -1.7621      1.00000
     24      -1.6676      1.00000
     25      -1.5452      1.00000
     26      -1.4329      1.00000
     27      -1.4091      1.00000
     28      -1.1593      1.00000
     29      -1.1284      1.00000
     30      -1.0957      1.00000
     31      -1.0036      1.00000
     32      -0.9575      1.00000
     33      -0.8847      1.00000
     34      -0.8700      1.00000
     35      -0.7632      1.00000
     36      -0.6871      1.00000
     37      -0.6327      1.00000
     38      -0.6044      1.00000
     39      -0.5607      1.00000
     40      -0.4923      1.00000
     41      -0.4688      1.00000
     42      -0.3988      1.00000
     43      -0.0692      1.00000
     44       0.7901      0.84177
     45       1.8296     -0.00000
     46       2.2589     -0.00000
     47       2.7831     -0.00000
     48       4.1172     -0.00000
     49       4.1823     -0.00000
     50       5.6499     -0.00000
     51       5.7924     -0.00000
     52       6.1973     -0.00000
     53       6.6983      0.00000
     54       7.0675      0.00000
     55       7.9839      0.00000
     56       8.1118      0.00000
     57       8.2158      0.00000
     58       8.6942      0.00000
     59       9.1890      0.00000
     60       9.4665      0.00000
 Fermi energy:         0.8801710615

 spin component 2

[...]

 k-point     4 :       0.3333    0.3333    0.0000
  band No.  band energies     occupation
      1      -5.6074      1.00000
      2      -4.6950      1.00000
      3      -3.9742      1.00000
      4      -3.4223      1.00000
      5      -3.3425      1.00000
      6      -3.0658      1.00000
      7      -3.0087      1.00000
      8      -2.8928      1.00000
      9      -2.8616      1.00000
     10      -2.7034      1.00000
     11      -2.6819      1.00000
     12      -2.4526      1.00000
     13      -2.3893      1.00000
     14      -2.2904      1.00000
     15      -2.2020      1.00000
     16      -2.1720      1.00000
     17      -2.1131      1.00000
     18      -2.0486      1.00000
     19      -1.9332      1.00000
     20      -1.8723      1.00000
     21      -1.8512      1.00000
     22      -1.7953      1.00000
     23      -1.7621      1.00000
     24      -1.6676      1.00000
     25      -1.5452      1.00000
     26      -1.4329      1.00000
     27      -1.4091      1.00000
     28      -1.1593      1.00000
     29      -1.1284      1.00000
     30      -1.0957      1.00000
     31      -1.0036      1.00000
     32      -0.9575      1.00000
     33      -0.8847      1.00000
     34      -0.8700      1.00000
     35      -0.7632      1.00000
     36      -0.6871      1.00000
     37      -0.6327      1.00000
     38      -0.6044      1.00000
     39      -0.5607      1.00000
     40      -0.4923      1.00000
     41      -0.4688      1.00000
     42      -0.3988      1.00000
     43      -0.0692      1.00000
     44       0.7901      0.84177
     45       1.8296     -0.00000
     46       2.2589     -0.00000
     47       2.7831     -0.00000
     48       4.1172     -0.00000
     49       4.1823     -0.00000
     50       5.6499     -0.00000
     51       5.7924     -0.00000
     52       6.1973     -0.00000
     53       6.6983      0.00000
     54       7.0675      0.00000
     55       7.9839      0.00000
     56       8.1118      0.00000
     57       8.2158      0.00000
     58       8.6943      0.00000
     59       9.1891      0.00000
     60       9.4665      0.00000

[...]

 soft charge-density along one line, spin component           2
         0         1         2         3         4         5         6         7         8         9
 total charge-density along one line

------------------------ aborting loop because EDIFF is reached ----------------------------------------

         DFTD3 V3.0 Rev 1
 Edisp (eV)   -3.18150

 E6    (eV) :    -1.3013
 E8    (eV) :    -1.8802
 % E8        : 59.10

  FORCE on cell =-STRESS in cart. coord.  units (eV):
  Direction    XX          YY          ZZ          XY          YZ          ZX
  Alpha Z   216.17040   216.17040   216.17040
  Ewald   47896.27539 48066.51264-53750.08006     0.00000     5.31310     0.00000
  Hartree 50986.82708 51109.71718-49147.62013    -0.00000    -0.74555    -0.00000
  E(xc)    -520.44392  -520.15438  -520.58881    -0.00000     0.06984    -0.00000
  Local  -99894.78462************101890.15398    -0.00000    -1.35919    -0.00000
  n-local  -179.47100  -175.36084  -180.23255     6.86066    -0.26697    -0.01623
  augment   755.52396   758.58695   757.69219     0.00000    -0.01696    -0.00000
  Kinetic   738.81147   737.72659   736.69082     6.65929    -2.70350    -0.00324
  Fock        0.00000     0.00000     0.00000     0.00000     0.00000     0.00000
  vdW        -3.88738    -3.85488    -2.77632     0.00000     0.07376    -0.00000
  Total      -4.97860    -4.53516    -0.59049     0.00000     0.36454     0.00000
  in kB     -35.69455   -32.51524    -4.23356     0.00000     2.61359     0.00000

 VOLUME and BASIS-vectors are now :
  energy-cutoff  :      400.00
  volume of cell :      223.47
      direct lattice vectors                 reciprocal lattice vectors
     3.630000114  0.000000000  0.000000000     0.275482085  0.000000000  0.000000000
     0.000000000  2.566797733  0.000000000     0.000000000  0.389590495  0.000000000
     0.000000000  0.000000000 23.983791351     0.000000000  0.000000000  0.041694826

  length of vectors
     3.630000114  2.566797733 23.983791351     0.275482085  0.389590495  0.041694826

 FORCES acting on ions
    electron-ion (+dipol)            ewald-force                    non-local-force                 convergence-correction
   -.426E-13 0.535E-01 0.459E+04   -.745E-07 -.892E-01 -.459E+04   0.000E+00 0.370E-01 -.620E+01   -.192E-10 -.103E-01 -.679E-01
   0.736E-06 0.252E+00 0.352E+04   0.134E-06 -.257E+00 -.352E+04   0.000E+00 0.534E-01 0.150E+01   0.106E-09 -.510E-01 -.455E+00
   -.554E-13 0.137E+00 0.208E+04   -.124E-06 -.178E+00 -.208E+04   0.000E+00 0.128E+00 -.101E+01   0.707E-10 -.823E-01 -.848E+00
   0.753E-06 -.253E+00 0.771E+03   0.128E-06 0.258E+00 -.770E+03   0.000E+00 0.293E-01 0.327E+00   -.274E-10 -.283E-01 -.103E+01
   -.560E-13 -.661E-01 -.578E+03   -.128E-06 0.582E-01 0.580E+03   0.000E+00 0.393E-01 -.197E+00   -.419E-10 -.204E-01 -.101E+01
   0.760E-06 0.395E+00 -.189E+04   0.124E-06 -.350E+00 0.189E+04   0.000E+00 -.310E-01 0.110E+01   -.144E-09 -.140E-01 -.813E+00
   -.498E-13 0.194E-01 -.332E+04   -.136E-06 -.326E-01 0.333E+04   0.000E+00 -.141E-01 -.161E+01   -.139E-10 0.244E-01 -.444E+00
   0.805E-06 -.319E+01 -.440E+04   0.808E-07 0.325E+01 0.439E+04   0.000E+00 -.154E+00 0.713E+01   -.112E-09 0.859E-01 -.468E-01
   0.547E-07 0.116E+02 -.390E+03   -.392E-08 -.143E+02 0.386E+03   0.000E+00 0.269E+01 0.374E+01   -.184E-11 -.263E-02 0.333E-01
   0.506E-07 -.905E+01 -.380E+03   -.130E-08 0.116E+02 0.383E+03   0.000E+00 -.258E+01 -.396E+01   -.539E-11 -.918E-03 0.368E-01
   0.316E-05 -.734E-01 0.379E+01   0.318E-13 0.675E-13 0.171E-12   0.000E+00 0.200E+00 0.819E+00   -.189E-09 -.995E-01 -.464E+01

 POSITION                                       TOTAL-FORCE (eV/Angst)
      0.00000     -0.00223     -0.01856         0.000000     -0.013947     -0.007365
      1.81500      1.27139      1.11461         0.000000     -0.009231     -0.013442
      0.00000     -0.04089      2.41393         0.000000      0.000273      0.023530
      1.81500      1.21098      3.66837         0.000000      0.002993      0.012302
      0.00000     -0.10113      4.93079         0.000000      0.007527     -0.024106
      1.81500      1.15471      6.19020         0.000000     -0.001495     -0.019618
      0.00000     -0.16736      7.48545         0.000000     -0.001172      0.003540
      1.81500      1.09704      8.61972         0.000000     -0.007903      0.008361
      1.81500      0.40885     10.62560         0.000000      0.011172      0.005642
      1.81500      0.82973     11.26760         0.000000      0.011784      0.011157
    total drift:                                0.000003      0.026982     -0.034403

  FREE ENERGIE OF THE ION-ELECTRON SYSTEM (eV)
  free  energy   TOTEN  =       -38.55233693 eV

  energy  without entropy=      -38.54687535  energy(sigma->0) =      -38.55051640

 d Force = 0.1044330E-03[ 0.207E-05, 0.207E-03]  d Energy = 0.1497417E-03-0.453E-04
 d Force =-0.8637184E+00[-0.864E+00,-0.863E+00]  d Ewald  =-0.8637185E+00 0.344E-07

 stress matrix after NEB project (eV)
     -4.97860      0.00000      0.00000
      0.00000     -4.53516      0.36454
      0.00000      0.36454     -0.59049
  FORCES: max atom, RMS     0.025254    0.016792
  FORCE total and by dimension    0.053102    0.024106
  Stress total and by dimension    6.780015    4.978603

 reached required accuracy - stopping structural energy minimisation