 vasp.6.3.2 27Jun22 (build Aug 17 2022 15:43:34) complex

 executed on           tv2STDVTST date 2025.01.21  11:27:11

 INCAR:
   ISTART = 0
   ICHARG = 2
   IPIPOL = 3
   IVDW = 11
   ISPIN = 2
   ENCUT = 400
   PREC = Normal
   EDIFF = 2E-04
   GGA = PE
   ISMEAR = 1
   SIGMA = 0.2
   LREAL = .FALSE.
   ISYM = 1
   NSW = 800
   IBRION = 2
   POTIM = 0.5
   ISIF = 2
   EDIFFG = -.03
   NPAR = 4
   LWAVE = .FALSE.
   LCHARG = .FALSE.

 POTCAR:    PAW_PBE Cu 22Jun2005
|           W    W    AA    RRRRR   N    N  II  N    N   GGGG   !!!           |
|           W    W   A  A   R    R  NN   N  II  NN   N  G    G  !!!           |
|           W    W  A    A  R    R  N N  N  II  N N  N  G       !!!           |
|           W WW W  AAAAAA  RRRRR   N  N N  II  N  N N  G  GGG   !            |
|           WW  WW  A    A  R   R   N   NN  II  N   NN  G    G                |
|           W    W  A    A  R    R  N    N  II  N    N   GGGG   !!!           |
|     You use a magnetic or noncollinear calculation, but did not specify     |
|     the initial magnetic moment with the MAGMOM tag. Note that a            |
|     default of 1 will be used for all atoms. This ferromagnetic setup       |
|     may break the symmetry of the crystal, in particular it may rule        |
|     out finding an antiferromagnetic solution. Thence, we recommend         |
|     setting the initial magnetic moment manually or verifying carefully     |
|     that this magnetic setup is desired.                                    |

   TITEL  = PAW_PBE Cu 22Jun2005
   POMASS =   63.546; ZVAL   =   11.000    mass and valenz
   ENMAX  =  295.446; ENMIN  =  221.585 eV

  PAW_PBE Cu 22Jun2005                  :

 POSCAR: FCC Cu
  positions in cartesian coordinates
  velocities in cartesian coordinates
 exchange correlation table for  LEXCH =        8
   RHO(1)=    0.500       N(1)  =     2000
   RHO(2)=  100.500       N(2)  =     4000

 VTST: version 4.2, (08/11/21)

 CHAIN: initializing optimizer

 OPT: Using VASP Conjugate-Gradient optimizer
 CHAIN: Read ICHAIN            0

 POSCAR: FCC Cu
  positions in cartesian coordinates
  velocities in cartesian coordinates

 ion  position               nearest neighbor table
   1  0.000  0.000  0.000-   3 2.57   4 2.57   3 2.57   4 2.57   2 2.57   2 2.57   2 2.57   2 2.57

   2  0.500  0.500  0.000-   3 2.57   4 2.57   3 2.57   4 2.57   1 2.57   1 2.57   1 2.57   1 2.57

   3  0.000  0.500  0.082-   5 2.57   6 2.57   5 2.57   6 2.57   2 2.57   1 2.57   2 2.57   1 2.57
                             4 2.57   4 2.57   4 2.57   4 2.57
   4  0.500  0.000  0.082-   5 2.57   6 2.57   5 2.57   6 2.57   2 2.57   1 2.57   2 2.57   1 2.57
                             3 2.57   3 2.57   3 2.57   3 2.57
   5  0.000  0.000  0.163-   3 2.57   4 2.57   3 2.57   4 2.57   7 2.57   8 2.57   7 2.57   8 2.57
                             6 2.57   6 2.57   6 2.57   6 2.57
   6  0.500  0.500  0.163-   3 2.57   4 2.57   3 2.57   4 2.57   7 2.57   8 2.57   7 2.57   8 2.57
                             5 2.57   5 2.57   5 2.57   5 2.57
   7  0.000  0.500  0.245-   9 2.57  10 2.57   9 2.57  10 2.57   6 2.57   5 2.57   6 2.57   5 2.57
                             8 2.57   8 2.57   8 2.57   8 2.57
   8  0.500  0.000  0.245-   9 2.57  10 2.57   9 2.57  10 2.57   6 2.57   5 2.57   6 2.57   5 2.57
                             7 2.57   7 2.57   7 2.57   7 2.57
   9  0.000  0.000  0.326-   7 2.57   8 2.57   7 2.57   8 2.57  10 2.57  10 2.57  10 2.57  10 2.57

  10  0.500  0.500  0.326-   7 2.57   8 2.57   7 2.57   8 2.57   9 2.57   9 2.57   9 2.57   9 2.57

  LATTYP: Found a simple tetragonal cell.
 ALAT       =     3.6300001144
 C/A-ratio  =     6.1322312117

  Lattice vectors:

 A1 = (   3.6300001144,   0.0000000000,   0.0000000000)
 A2 = (   0.0000000000,   3.6300001144,   0.0000000000)
 A3 = (   0.0000000000,   0.0000000000,  22.2600000000)

Analysis of symmetry for initial positions (statically):
 Subroutine PRICEL returns following result:

[...]

   2 primitive cells build up your supercell.

 Routine SETGRP: Setting up the symmetry group for a
 simple tetragonal supercell.

 Subroutine GETGRP returns: Found 16 space group operations
 (whereof  8 operations were pure point group operations)
 out of a pool of 16 trial point group operations.

The static configuration has the point symmetry C_4v.
 The point group associated with its full space group is D_4h.

Analysis of symmetry for dynamics (positions and initial velocities):
 Subroutine PRICEL returns following result:

[...]

The dynamic configuration has the point symmetry C_4v.
 The point group associated with its full space group is D_4h.

Analysis of constrained symmetry for selective dynamics:
 Subroutine PRICEL returns following result:

[...]

The constrained configuration has the point symmetry C_4v.

Analysis of structural, dynamic, and magnetic symmetry:
 Subroutine PRICEL returns following result:

  LATTYP: Found a simple tetragonal cell.
 ALAT       =     2.5667976966
 C/A-ratio  =     8.6722845472

  Lattice vectors:

 A1 = (   1.8150000570,  -1.8150000574,   0.0000000000)
 A2 = (   1.8150000570,   1.8150000570,   0.0000000000)
 A3 = (   0.0000000000,   0.0000000000,  22.2600000000)

   2 primitive cells build up your supercell.

 Routine SETGRP: Setting up the symmetry group for a
 simple tetragonal supercell.

 Subroutine GETGRP returns: Found  8 space group operations
 (whereof  8 operations were pure point group operations)
 out of a pool of 16 trial point group operations.

The overall configuration has the point symmetry C_4v.

 Subroutine INISYM returns: Found  8 space group operations
 (whereof  8 operations are pure point group operations),
 and found     2 'primitive' translations

                                     Primitive cell

  volume of cell :     146.6589

  direct lattice vectors                    reciprocal lattice vectors
     1.815000057 -1.815000057  0.000000000     0.275482085 -0.275482085  0.000000000
     1.815000057  1.815000057  0.000000000     0.275482085  0.275482085  0.000000000
     0.000000000  0.000000000 22.260000000     0.000000000  0.000000000  0.044923630

  length of vectors
     2.566797697  2.566797696 22.260000000     0.389590501  0.389590501  0.044923630

  position of ions in fractional coordinates (direct lattice)
     0.000000000  0.000000000  0.000000000
     0.500000000  0.500000000  0.081536389
     0.000000000  0.000000000  0.163072779
     0.500000000  0.500000000  0.244609168
     0.000000000  0.000000000  0.326145557

  ion indices of the primitive-cell ions
   primitive index   ion index
                 1           1
                 2           3
                 3           5
                 4           7
                 5           9

 KPOINTS: Auto-mesh

Automatic generation of k-mesh.
 Grid dimensions read from file:
 generate k-points for:    3    3    1

 Generating k-lattice:

  Cartesian coordinates                     Fractional coordinates (reciprocal lattice)
     0.091827362  0.000000000  0.000000000     0.333333333  0.000000000  0.000000000
     0.000000000  0.091827362  0.000000000     0.000000000  0.333333333  0.000000000
     0.000000000  0.000000000  0.044923630     0.000000000  0.000000000  1.000000000

  Length of vectors
     0.091827362  0.091827362  0.044923630

  Shift w.r.t. Gamma in fractional coordinates (k-lattice)
     0.000000000  0.000000000  0.000000000

 Subroutine IBZKPT returns following result:

 Found      3 irreducible k-points:

 Following reciprocal coordinates:
            Coordinates               Weight
  0.000000  0.000000  0.000000      1.000000
  0.333333  0.000000  0.000000      4.000000
  0.333333  0.333333  0.000000      4.000000

 Following cartesian coordinates:
            Coordinates               Weight
  0.000000  0.000000  0.000000      1.000000
  0.091827  0.000000  0.000000      4.000000
  0.091827  0.091827  0.000000      4.000000

 SYSTEM =  unknown system
 POSCAR =  FCC Cu

 Startparameter for this run:
   NWRITE =      2    write-flag & timer
   PREC   = normal    normal or accurate (medium, high low for compatibility)
   ISTART =      0    job   : 0-new  1-cont  2-samecut
   ICHARG =      2    charge: 1-file 2-atom 10-const
   ISPIN  =      2    spin polarized calculation?
   LNONCOLLINEAR =      F non collinear calculations
   LSORBIT =      F    spin-orbit coupling
   INIWAV =      1    electr: 0-lowe 1-rand  2-diag
   LASPH  =      F    aspherical Exc in radial PAW
 Electronic Relaxation 1
   ENCUT  =  400.0 eV  29.40 Ry    5.42 a.u.   5.92  5.92 36.30*2*pi/ulx,y,z
   ENINI  =  400.0     initial cutoff
   ENAUG  =  587.0 eV  augmentation charge cutoff
   NELM   =     60;   NELMIN=  2; NELMDL= -5     # of ELM steps
   EDIFF  = 0.2E-03   stopping-criterion for ELM
   LREAL  =      F    real-space projection
   NLSPLINE    = F    spline interpolate recip. space projectors
   LCOMPAT=      F    compatible to vasp.4.4
   GGA_COMPAT  = T    GGA compatible to vasp.4.4-vasp.4.6
   LMAXPAW     = -100 max onsite density
   LMAXMIX     =    2 max onsite mixed and CHGCAR
   VOSKOWN=      0    Vosko Wilk Nusair interpolation
   ROPT   =    0.00000
 Ionic relaxation
   EDIFFG = -.3E-01   stopping-criterion for IOM
   NSW    =    800    number of steps for IOM
   NBLOCK =      1;   KBLOCK =    800    inner block; outer block
   IBRION =      2    ionic relax: 0-MD 1-quasi-New 2-CG
   NFREE  =      1    steps in history (QN), initial steepest desc. (CG)
   ISIF   =      2    stress and relaxation
   IWAVPR =     11    prediction:  0-non 1-charg 2-wave 3-comb
   ISYM   =      1    0-nonsym 1-usesym 2-fastsym
   LCORR  =      T    Harris-Foulkes like correction to forces

   POTIM  = 0.5000    time-step for ionic-motion
   TEIN   =    0.0    initial temperature
   TEBEG  =    0.0;   TEEND  =   0.0 temperature during run
   SMASS  =  -3.00    Nose mass-parameter (am)
   estimated Nose-frequenzy (Omega)   =  0.10E-29 period in steps = 0.13E+47 mass=  -0.301E-27a.u.
   SCALEE = 1.0000    scale energy and forces
   NPACO  =    256;   APACO  = 10.0  distance and # of slots for P.C.
   PSTRESS=    0.0 pullay stress

  Mass of Ions in am
   POMASS =  63.55
  Ionic Valenz
   ZVAL   =  11.00
  Atomic Wigner-Seitz radii
  virtual crystal weights
   VCA    =   1.00
   NELECT =     110.0000    total number of electrons
   NUPDOWN=      -1.0000    fix difference up-down

 DOS related values:
   EMIN   =  10.00;   EMAX   =-10.00  energy-range for DOS
   EFERMI =   0.00
   ISMEAR =     1;   SIGMA  =   0.20  broadening in eV -4-tet -1-fermi 0-gaus

 Electronic relaxation 2 (details)
   IALGO  =     38    algorithm
   LDIAG  =      T    sub-space diagonalisation (order eigenvalues)
   LSUBROT=      F    optimize rotation matrix (better conditioning)
   TURBO    =      0    0=normal 1=particle mesh
   IRESTART =      0    0=no restart 2=restart with 2 vectors
   NREBOOT  =      0    no. of reboots
   NMIN     =      0    reboot dimension
   EREF     =   0.00    reference energy to select bands
   IMIX   =      4    mixing-type and parameters
     AMIX     =   0.40;   BMIX     =  1.00
     AMIX_MAG =   1.60;   BMIX_MAG =  1.00
     AMIN     =   0.10
[...]
      1.81500      1.81500      3.63000        -0.000000      0.000000      0.002199
      0.00000      1.81500      5.44500        -0.000000     -0.000000      0.072123
      1.81500      0.00000      5.44500         0.000000      0.000000      0.072123
      0.00000      0.00000      7.26000        -0.000000     -0.000000     -0.272623
      1.81500      1.81500      7.26000         0.000000      0.000000     -0.272623
    total drift:                                0.000004      0.000004     -0.007007

  FREE ENERGIE OF THE ION-ELECTRON SYSTEM (eV)
  free  energy   TOTEN  =       -37.95711232 eV

  energy  without entropy=      -37.92870889  energy(sigma->0) =      -37.94764451

 stress matrix after NEB project (eV)
     -7.17559      0.00000      0.00000
      0.00000     -7.17559      0.00000
      0.00000      0.00000     -4.23510
  FORCES: max atom, RMS     0.272623    0.126119
  FORCE total and by dimension    0.398823    0.272623
  Stress total and by dimension   10.996097    7.175587

[...]

         DFTD3 V3.0 Rev 1
 Edisp (eV)   -3.56677

[...]

 d Force = 0.6198280E-02[ 0.472E-02, 0.767E-02]  d Energy = 0.6616446E-02-0.418E-03
 d Force =-0.8823626E+02[-0.883E+02,-0.882E+02]  d Ewald  =-0.8823650E+02 0.242E-03

 stress matrix after NEB project (eV)
     -6.00454      0.00000      0.00000
      0.00000     -6.00454      0.00000
      0.00000      0.00000     -2.95008
  FORCES: max atom, RMS     0.181805    0.081420
  FORCE total and by dimension    0.257474    0.181805
  Stress total and by dimension    8.989545    6.004537
 Steepest descent step on ions:
 trial-energy change:   -0.006616  1 .order   -0.006198   -0.007673   -0.004723
  (g-gl).g = 0.767E-02      g.g   = 0.767E-02  gl.gl    = 0.000E+00
 g(Force)  = 0.767E-02   g(Stress)= 0.000E+00 ortho     = 0.000E+00
 gamma     =   0.00000
 trial     =   1.00000
 opt step  =   2.60082  (harmonic =   2.60082) maximal distance =0.00904930
 next E    =   -37.967091   (d E  =  -0.00998)

[...]

 d Force =-0.6476264E-03[-0.264E-02, 0.134E-02]  d Energy =-0.4836468E-03-0.164E-03
 d Force =-0.1080936E+03[-0.108E+03,-0.108E+03]  d Ewald  =-0.1080940E+03 0.487E-03

[...]

 d Force = 0.7178974E-03[-0.312E-03, 0.175E-02]  d Energy = 0.6235128E-03 0.944E-04
 d Force = 0.7165705E+02[ 0.716E+02, 0.717E+02]  d Ewald  = 0.7165719E+02-0.143E-03

[...]

 stress matrix after NEB project (eV)
     -5.40061      0.00000      0.00000
      0.00000     -5.40061      0.00000
      0.00000     -0.00000     -2.16325
  FORCES: max atom, RMS     0.134501    0.062851
  FORCE total and by dimension    0.198752    0.134501
  Stress total and by dimension    7.938059    5.400608
 Conjugate gradient step on ions:
 trial-energy change:   -0.004735  1 .order   -0.004393   -0.005435   -0.003351
  (g-gl).g = 0.303E-02      g.g   = 0.341E-02  gl.gl    = 0.767E-02
 g(Force)  = 0.341E-02   g(Stress)= 0.000E+00 ortho     = 0.387E-03
 gamma     =   0.39435
 trial     =   1.52410
 opt step  =   3.97519  (harmonic =   3.97519) maximal distance =0.00707932
 next E    =   -37.977636   (d E  =  -0.00709)

[...]

 d Force =-0.2650831E-02[-0.110E-01, 0.567E-02]  d Energy =-0.1920300E-02-0.731E-03
 d Force =-0.4484605E+03[-0.450E+03,-0.447E+03]  d Ewald  =-0.4484649E+03 0.443E-02

[...]

 d Force = 0.3532299E-02[-0.168E-03, 0.723E-02]  d Energy = 0.3112581E-02 0.420E-03
 d Force = 0.2959431E+03[ 0.295E+03, 0.296E+03]  d Ewald  = 0.2959444E+03-0.129E-02

[...]

 stress matrix after NEB project (eV)
     -4.39172      0.00000      0.00000
      0.00000     -4.39172      0.00000
      0.00000      0.00000     -0.84481
  FORCES: max atom, RMS     0.142929    0.065541
  FORCE total and by dimension    0.207260    0.142929
  Stress total and by dimension    6.268026    4.391722
 Conjugate gradient step on ions:
 trial-energy change:   -0.005307  1 .order   -0.004604   -0.005080   -0.004129
  (g-gl).g = 0.295E-02      g.g   = 0.288E-02  gl.gl    = 0.341E-02
 g(Force)  = 0.288E-02   g(Stress)= 0.000E+00 ortho     = 0.521E-04
 gamma     =   0.86411
 trial     =   1.73852
 opt step  =   6.95408  (harmonic =   9.28103) maximal distance =0.00000000
 next E    =   -37.994523   (d E  =  -0.01356)

[...]

 d Force = 0.7450817E-02[ 0.252E-02, 0.124E-01]  d Energy = 0.8037737E-02-0.587E-03
 d Force =-0.4750448E+03[-0.476E+03,-0.474E+03]  d Ewald  =-0.4750470E+03 0.219E-02

[...]

 eigenvalue-minimisations  :  1320
 total energy-change (2. order) :-0.5426682E-02  (-0.5420573E-02)
 number of electron     110.0001739 magnetization      -0.0000669
 augmentation part       70.2055068 magnetization      -0.0000079

[...]

 Broyden mixing:
  rms(total) = 0.10717E-01    rms(broyden)= 0.10710E-01
  rms(prec ) = 0.11842E-01
  weight for this iteration     100.00

 eigenvalues of (default mixing * dielectric matrix)
  average eigenvalue GAMMA=   0.3263
  0.3263  0.3263

[...]

--------------------------------------- Iteration     13(   4)  ---------------------------------------

 eigenvalue-minimisations  :   768
 total energy-change (2. order) : 0.4525094E-04  (-0.9075323E-04)
 number of electron     110.0001739 magnetization      -0.0000653
 augmentation part       70.2039992 magnetization      -0.0000124

 Free energy of the ion-electron system (eV)
  alpha Z        PSCENC =       249.32956877
  Ewald energy   TEWEN  =     46199.86536396
  -Hartree energ DENC   =    -59479.15841373
  -exchange      EXHF   =         0.00000000
  -V(xc)+E(xc)   XCENC  =       445.33242395
  PAW double counting   =     13056.97538396   -14133.97453865
  entropy T*S    EENTRO =        -0.03285937
  eigenvalues    EBANDS =      -282.27907785
  atomic energy  EATOM  =     13909.57640200
  Solvation  Ediel_sol  =         0.00000000
  free energy    TOTEN  =       -34.36574697 eV

  energy without entropy =      -34.33288760  energy(sigma->0) =      -34.35479384

 average (electrostatic) potential at core
  the test charge radii are     0.9430
  (the norm of the test charge is              1.0000)
       1 -70.6418       2 -70.6418       3 -70.9917       4 -70.9917       5 -70.9640
       6 -70.9640       7 -71.0292       8 -71.0292       9 -70.6900      10 -70.6900

 E-fermi :   0.3712     XC(G=0):  -5.9943     alpha+bet : -5.4052

 Fermi energy:         0.3712367553

[...]

 k-point     3 :       0.3333    0.3333    0.0000
  band No.  band energies     occupation
      1      -6.2865      1.00000
      2      -5.4455      1.00000
      3      -4.5730      1.00000
      4      -4.3734      1.00000
      5      -4.3355      1.00000
      6      -4.2127      1.00000
      7      -3.9465      1.00000
      8      -3.9094      1.00000
      9      -3.7912      1.00000
     10      -3.7064      1.00000
     11      -3.4455      1.00000
     12      -3.2703      1.00000
     13      -3.1757      1.00000
     14      -3.1459      1.00000
     15      -2.9990      1.00000
     16      -2.9545      1.00000
     17      -2.9053      1.00000
     18      -2.8858      1.00000
     19      -2.8383      1.00000
     20      -2.6969      1.00000
     21      -2.6802      1.00000
     22      -2.6505      1.00000
     23      -2.6175      1.00000
     24      -2.6133      1.00000
     25      -2.6032      1.00000
     26      -2.6000      1.00000
     27      -2.4724      1.00000
     28      -2.4410      1.00000
     29      -2.3466      1.00000
     30      -2.2928      1.00000
     31      -2.2829      1.00000
     32      -2.2811      1.00000
     33      -2.2547      1.00000
     34      -2.1329      1.00000
     35      -2.1192      1.00000
     36      -2.0710      1.00000
     37      -2.0446      1.00000
     38      -1.8963      1.00000
     39      -1.8216      1.00000
     40      -1.7611      1.00000
     41      -1.6184      1.00000
     42      -1.5681      1.00000
     43      -1.5541      1.00000
     44      -1.5202      1.00000
     45      -1.4963      1.00000
     46      -1.4366      1.00000
     47      -1.3619      1.00000
     48      -1.3550      1.00000
     49      -1.3062      1.00000
     50      -1.3051      1.00000
     51      -1.2627      1.00000
     52      -1.2481      1.00000
     53      -1.1039      1.00000
     54       0.3494      0.59194
     55       0.3820      0.45443
     56       0.7524     -0.01071
     57       0.8136     -0.00380
     58       1.0439     -0.00001
     59       1.4398     -0.00000
     60       2.8986     -0.00000
     61       3.7147     -0.00000
     62       4.1758     -0.00000
     63       4.3479     -0.00000
     64       4.7329     -0.00000
     65       5.6944     -0.00000
     66       5.6961     -0.00000
     67       6.7896      0.00000
     68       6.8552      0.00000
     69       7.1522      0.00000
     70       7.7261      0.00000
     71       8.0126      0.00000
     72       8.3932      0.00000
 Fermi energy:         0.3712367553

 spin component 2

[...]

 k-point     3 :       0.3333    0.3333    0.0000
  band No.  band energies     occupation
      1      -6.2865      1.00000
      2      -5.4455      1.00000
      3      -4.5730      1.00000
      4      -4.3734      1.00000
      5      -4.3355      1.00000
      6      -4.2127      1.00000
      7      -3.9465      1.00000
      8      -3.9094      1.00000
      9      -3.7913      1.00000
     10      -3.7064      1.00000
     11      -3.4455      1.00000
     12      -3.2703      1.00000
     13      -3.1757      1.00000
     14      -3.1459      1.00000
     15      -2.9990      1.00000
     16      -2.9545      1.00000
     17      -2.9053      1.00000
     18      -2.8858      1.00000
     19      -2.8383      1.00000
     20      -2.6969      1.00000
     21      -2.6802      1.00000
     22      -2.6505      1.00000
     23      -2.6175      1.00000
     24      -2.6133      1.00000
     25      -2.6032      1.00000
     26      -2.6000      1.00000
     27      -2.4724      1.00000
     28      -2.4410      1.00000
     29      -2.3466      1.00000
     30      -2.2928      1.00000
     31      -2.2829      1.00000
     32      -2.2811      1.00000
     33      -2.2546      1.00000
     34      -2.1329      1.00000
     35      -2.1192      1.00000
     36      -2.0711      1.00000
     37      -2.0446      1.00000
     38      -1.8963      1.00000
     39      -1.8216      1.00000
     40      -1.7611      1.00000
     41      -1.6184      1.00000
     42      -1.5681      1.00000
     43      -1.5541      1.00000
     44      -1.5202      1.00000
     45      -1.4963      1.00000
     46      -1.4366      1.00000
     47      -1.3619      1.00000
     48      -1.3550      1.00000
     49      -1.3062      1.00000
     50      -1.3051      1.00000
     51      -1.2627      1.00000
     52      -1.2481      1.00000
     53      -1.1039      1.00000
     54       0.3494      0.59197
     55       0.3820      0.45444
     56       0.7524     -0.01072
     57       0.8136     -0.00380
     58       1.0438     -0.00001
     59       1.4398     -0.00000
     60       2.8986     -0.00000
     61       3.7147     -0.00000
     62       4.1758     -0.00000
     63       4.3479     -0.00000
     64       4.7329     -0.00000
     65       5.6944     -0.00000
     66       5.6961     -0.00000
     67       6.7896      0.00000
     68       6.8552      0.00000
     69       7.1531      0.00000
     70       7.7264      0.00000
     71       8.0126      0.00000
     72       8.3949      0.00000

[...]

 soft charge-density along one line, spin component           2
         0         1         2         3         4         5         6         7         8         9
 total charge-density along one line

------------------------ aborting loop because EDIFF is reached ----------------------------------------

         DFTD3 V3.0 Rev 1
 Edisp (eV)   -3.62929

 E6    (eV) :    -1.4322
 E8    (eV) :    -2.1971
 % E8        : 60.54

  FORCE on cell =-STRESS in cart. coord.  units (eV):
  Direction    XX          YY          ZZ          XY          YZ          ZX
  Alpha Z   249.32957   249.32957   249.32957
  Ewald   53438.12459 53438.12459-60676.39192     0.00000     0.00000     0.00000
  Hartree 57137.43615 57137.43615-54795.58868    -0.00000    -0.00000    -0.00000
  E(xc)    -642.26299  -642.26299  -643.24470     0.00000     0.00000     0.00000
  Local  ************************114233.55479    -0.00000    -0.00000    -0.00000
  n-local  -209.25464  -222.55667  -216.13761     5.89039     0.00000     0.00000
  augment   944.70743   944.70743   949.75809    -0.00000     0.00000    -0.00000
  Kinetic   906.35372   884.22043   901.04963    -1.85680    -0.00000    -0.00000
  Fock        0.00000     0.00000     0.00000     0.00000     0.00000     0.00000
  vdW        -4.37315    -4.37315    -2.89784     0.00000     0.00000     0.00000
  Total      -4.40705    -4.40705    -0.56866     0.00000     0.00000     0.00000
  in kB     -24.07247   -24.07247    -3.10616     0.00000     0.00000     0.00000

 VOLUME and BASIS-vectors are now :
  energy-cutoff  :      400.00
  volume of cell :      293.32
      direct lattice vectors                 reciprocal lattice vectors
     3.630000114  0.000000000  0.000000000     0.275482085  0.000000000  0.000000000
     0.000000000  3.630000114  0.000000000     0.000000000  0.275482085  0.000000000
     0.000000000  0.000000000 22.260000000     0.000000000  0.000000000  0.044923630

  length of vectors
     3.630000114  3.630000114 22.260000000     0.275482085  0.275482085  0.044923630

 FORCES acting on ions
    electron-ion (+dipol)            ewald-force                    non-local-force                 convergence-correction
   -.549E-13 -.138E-11 0.392E+04   -.923E-07 -.923E-07 -.392E+04   -.662E-23 0.000E+00 -.308E+01   0.167E-10 0.167E-10 -.124E-01
   0.774E-06 0.774E-06 0.392E+04   0.923E-07 0.923E-07 -.392E+04   0.265E-22 0.529E-22 -.308E+01   0.113E-10 0.113E-10 -.124E-01
   -.634E-13 0.754E-06 0.201E+04   -.126E-06 0.126E-06 -.201E+04   -.132E-22 0.000E+00 -.119E+01   0.314E-09 -.130E-09 -.188E+00
   0.754E-06 0.312E-12 0.201E+04   0.126E-06 -.126E-06 -.201E+04   -.132E-22 0.000E+00 -.119E+01   -.130E-09 0.314E-09 -.188E+00
   -.382E-13 -.564E-13 0.111E+02   -.129E-06 -.129E-06 -.107E+02   0.265E-22 0.000E+00 0.313E+00   0.341E-09 0.341E-09 -.763E+00
   0.753E-06 0.753E-06 0.111E+02   0.129E-06 0.129E-06 -.107E+02   0.265E-22 -.529E-22 0.313E+00   -.260E-09 -.259E-09 -.763E+00
   -.479E-13 0.751E-06 -.200E+04   -.130E-06 0.130E-06 0.200E+04   -.529E-22 0.000E+00 0.132E+01   0.671E-10 -.193E-09 -.775E+00
   0.751E-06 0.223E-12 -.200E+04   0.130E-06 -.130E-06 0.200E+04   0.000E+00 0.529E-22 0.132E+01   -.193E-09 0.667E-10 -.775E+00
   -.595E-13 -.182E-11 -.394E+04   -.965E-07 -.965E-07 0.394E+04   -.265E-22 0.000E+00 0.359E+01   -.350E-09 -.350E-09 -.631E+00
   0.772E-06 0.772E-06 -.394E+04   0.965E-07 0.965E-07 0.394E+04   -.132E-22 0.000E+00 0.359E+01   -.194E-10 -.188E-10 -.631E+00
   0.380E-05 0.380E-05 0.279E+01   -.649E-13 -.687E-13 -.227E-11   -.463E-22 0.529E-22 0.192E+01   -.201E-09 -.201E-09 -.474E+01

 POSITION                                       TOTAL-FORCE (eV/Angst)
      0.00000      0.00000      0.00000        -0.000000     -0.000000      0.258290
      1.81500      1.81500      0.00000        -0.000000      0.000000      0.258290
      0.00000      1.81500      1.81500        -0.000000      0.000000     -0.261689
      1.81500      0.00000      1.81500        -0.000000      0.000000     -0.261689
      0.00000     -0.00000      3.58530        -0.000000     -0.000000     -0.007658
      1.81500      1.81500      3.58530         0.000000      0.000000     -0.007658
     -0.00000      1.81500      5.35787        -0.000000     -0.000000      0.001088
      1.81500     -0.00000      5.35787        -0.000000     -0.000000      0.001088
     -0.00000      0.00000      7.10070        -0.000000     -0.000000      0.009969
      1.81500      1.81500      7.10070         0.000000      0.000000      0.009969
    total drift:                                0.000004      0.000004     -0.030004

  FREE ENERGIE OF THE ION-ELECTRON SYSTEM (eV)
  free  energy   TOTEN  =       -37.99503764 eV

  energy  without entropy=      -37.96217827  energy(sigma->0) =      -37.98408451

 d Force = 0.2724721E-03[-0.963E-04, 0.641E-03]  d Energy = 0.7298158E-03-0.457E-03
 d Force =-0.1214439E+03[-0.122E+03,-0.121E+03]  d Ewald  =-0.1214439E+03 0.378E-04

 stress matrix after NEB project (eV)
     -4.40705      0.00000      0.00000
      0.00000     -4.40705      0.00000
      0.00000      0.00000     -0.56866
  FORCES: max atom, RMS     0.009969    0.005643
  FORCE total and by dimension    0.017843    0.009969
  Stress total and by dimension    6.258405    4.407055

 reached required accuracy - stopping structural energy minimisation